 ----------------------------------------------------
    OOO  PPPP  EEEEE N   N M   M PPPP
   O   O P   P E     NN  N MM MM P   P
   O   O PPPP  EEEEE N N N M M M PPPP   -- VERSION
   O   O P     E     N  NN M   M P
    OOO  P     EEEEE N   N M   M P
 ----------------------------------------------------
 running  128 mpi-ranks, with    1 threads/rank
 distrk:  each k-point on  128 cores,    1 groups
 distr:  one band on    8 cores,   16 groups
 vasp.6.3.2 27Jun22 (build Oct 02 2025 09:19:44) complex                        
  
 POSCAR found type information on POSCAR Au
 POSCAR found :  1 types and      72 ions
 Reading from existing POTCAR
 scaLAPACK will be used
 Reading from existing POTCAR
 LDA part: xc-table for Pade appr. of Perdew
 POSCAR found type information on POSCAR Au
 POSCAR found :  1 types and      72 ions
 POSCAR found type information on POSCAR Au
 POSCAR found :  1 types and      72 ions
 -----------------------------------------------------------------------------
|                                                                             |
|           W    W    AA    RRRRR   N    N  II  N    N   GGGG   !!!           |
|           W    W   A  A   R    R  NN   N  II  NN   N  G    G  !!!           |
|           W    W  A    A  R    R  N N  N  II  N N  N  G       !!!           |
|           W WW W  AAAAAA  RRRRR   N  N N  II  N  N N  G  GGG   !            |
|           WW  WW  A    A  R   R   N   NN  II  N   NN  G    G                |
|           W    W  A    A  R    R  N    N  II  N    N   GGGG   !!!           |
|                                                                             |
|     Your reciprocal lattice and k-lattice belong to different lattice       |
|     classes:                                                                |
|                                                                             |
|        The reciprocal lattice is simple orthorhombic,                       |
|        whereas your k-lattice is simple monoclinic.                         |
|                                                                             |
|     Results are often still useful ...                                      |
|                                                                             |
 -----------------------------------------------------------------------------

 POSCAR, INCAR and KPOINTS ok, starting setup
 FFT: planning ... GRIDC
 FFT: planning ... GRID_SOFT
 FFT: planning ... GRID
 WAVECAR not read
 
 invBETA =   2.567980938600000E-002
 PBETA   =    19.4705495077618     
 ZBETA   =    38.9410990155237     
 
 alpha0_rot   =    587.209258857455     
 alpha_pol    =    5.97785463206492     
 invalpha_sic =   1.252992168182255E-003
 alpha_lin    =    593.187113489519     
 f_loc        =    3.89497294977035     
 alpha0_diel  =    2310.44776119403     
 
 alpha0_ion =    3072.55630941130     
 n_max      =   2.762135864009951E-003
 theta_b    =   0.436039376517672     
 LION       =  T
 
 entering main loop
       N       E                     dE             d eps       ncg     rms          rms(c)
  Solvation turned off during non-self-consistent phase (first NELMDL steps)
DAV:   1     0.575057460233E+04    0.57506E+04   -0.30554E+05  6752   0.128E+03
