 ----------------------------------------------------
    OOO  PPPP  EEEEE N   N M   M PPPP
   O   O P   P E     NN  N MM MM P   P
   O   O PPPP  EEEEE N N N M M M PPPP   -- VERSION
   O   O P     E     N  NN M   M P
    OOO  P     EEEEE N   N M   M P
 ----------------------------------------------------
 running   16 mpi-ranks, with    1 threads/rank
 distrk:  each k-point on   16 cores,    1 groups
 distr:  one band on    1 cores,   16 groups
 vasp.6.3.2 27Jun22 (build Oct 02 2025 09:19:44) complex                        
  
 POSCAR found type information on POSCAR Au
 POSCAR found :  1 types and       1 ions
 Reading from existing POTCAR
 scaLAPACK will be used
 Reading from existing POTCAR
 LDA part: xc-table for Pade appr. of Perdew
 POSCAR found type information on POSCAR Au
 POSCAR found :  1 types and       1 ions
 POSCAR found type information on POSCAR Au
 POSCAR found :  1 types and       1 ions
 POSCAR, INCAR and KPOINTS ok, starting setup
 FFT: planning ... GRIDC
 FFT: planning ... GRID_SOFT
 FFT: planning ... GRID
 WAVECAR not read
 entering main loop
       N       E                     dE             d eps       ncg     rms          rms(c)
DAV:   1     0.235738934402E+02    0.23574E+02   -0.58712E+03 13104   0.589E+02
DAV:   2    -0.345499311963E+01   -0.27029E+02   -0.26435E+02 18960   0.958E+01
DAV:   3    -0.348396981402E+01   -0.28977E-01   -0.28976E-01 15424   0.440E+00
DAV:   4    -0.348398376877E+01   -0.13955E-04   -0.13956E-04 21760   0.803E-02
DAV:   5    -0.348398376905E+01   -0.28172E-09   -0.66404E-09 15648   0.429E-04    0.810E+00
DAV:   6    -0.323825247636E+01    0.24573E+00   -0.91204E-01 17200   0.499E+00    0.527E+00
DAV:   7    -0.322233762929E+01    0.15915E-01   -0.68107E-02 23120   0.137E+00    0.264E+00
DAV:   8    -0.322044385571E+01    0.18938E-02   -0.10522E-03 15616   0.195E-01    0.206E-01
DAV:   9    -0.322043573836E+01    0.81173E-05   -0.65628E-06 17968   0.176E-02    0.302E-02
DAV:  10    -0.322044237407E+01   -0.66357E-05   -0.34015E-06 19968   0.139E-02    0.137E-03
DAV:  11    -0.322044242056E+01   -0.46485E-07   -0.51555E-08 19840   0.135E-03
   1 F= -.32204424E+01 E0= -.32205682E+01  d E =0.377340E-03
