 ----------------------------------------------------
    OOO  PPPP  EEEEE N   N M   M PPPP
   O   O P   P E     NN  N MM MM P   P
   O   O PPPP  EEEEE N N N M M M PPPP   -- VERSION
   O   O P     E     N  NN M   M P
    OOO  P     EEEEE N   N M   M P
 ----------------------------------------------------
 running   16 mpi-ranks, with    1 threads/rank
 distrk:  each k-point on   16 cores,    1 groups
 distr:  one band on    1 cores,   16 groups
 vasp.6.3.2 27Jun22 (build Oct 02 2025 09:19:44) complex                        
  
 POSCAR found type information on POSCAR Au
 POSCAR found :  1 types and       1 ions
 Reading from existing POTCAR
 scaLAPACK will be used
 Reading from existing POTCAR
 LDA part: xc-table for Pade appr. of Perdew
 POSCAR found type information on POSCAR Au
 POSCAR found :  1 types and       1 ions
 POSCAR found type information on POSCAR Au
 POSCAR found :  1 types and       1 ions
 POSCAR, INCAR and KPOINTS ok, starting setup
 FFT: planning ... GRIDC
 FFT: planning ... GRID_SOFT
 FFT: planning ... GRID
 WAVECAR not read
 entering main loop
       N       E                     dE             d eps       ncg     rms          rms(c)
DAV:   1     0.242847902022E+02    0.24285E+02   -0.57830E+03 13104   0.582E+02
DAV:   2    -0.341200600356E+01   -0.27697E+02   -0.27048E+02 18720   0.956E+01
DAV:   3    -0.344231479380E+01   -0.30309E-01   -0.30309E-01 15520   0.448E+00
DAV:   4    -0.344233347202E+01   -0.18678E-04   -0.18678E-04 21616   0.894E-02
DAV:   5    -0.344233347556E+01   -0.35396E-08   -0.27504E-08 15632   0.589E-04    0.650E+00
DAV:   6    -0.320173831155E+01    0.24060E+00   -0.97414E-01 15600   0.505E+00    0.444E+00
DAV:   7    -0.319026931997E+01    0.11469E-01   -0.48725E-02 22032   0.114E+00    0.242E+00
DAV:   8    -0.318885507038E+01    0.14142E-02   -0.75629E-04 15600   0.178E-01    0.170E-01
DAV:   9    -0.318884926910E+01    0.58013E-05   -0.87106E-06 17520   0.166E-02    0.239E-02
DAV:  10    -0.318885718552E+01   -0.79164E-05   -0.46922E-06 18496   0.161E-02    0.197E-03
DAV:  11    -0.318885724138E+01   -0.55856E-07   -0.56046E-08 20048   0.134E-03
   1 F= -.31888572E+01 E0= -.31889329E+01  d E =0.227076E-03
