64
Lattice="47.042399938778644 0.0 0.0 1.4700749980868326 2.5462445876231135 0.0 0.0 0.0 44.603" Properties=species:S:1:pos:R:3:forces_raw:R:3:fixed:L:1 state_id=Flat16x1_dUp02 geometry_id=Flat16x1 group=v0_main_production config_version="production-2026-09-26 (PREC=Normal, ALGO=Fast, NPAR=16 hybrid)" N_neutral=704.0 N_e_final=703.9 delta_N_e=-0.10000000000002274 mu_e_actual_eV=-5.098393 TARGETMU_eV=-5.1071 mu_e_neutral_eV=-4.979163 E_free_TOTEN_eV=-194.76924354 E_without_entropy_eV=-194.70908888 E_sigma0_eV=-194.74919198 GCE_code_eV=-195.2599 TOTEN_minus_mu_dN_eV=-195.27908284000011 energy_label_status=UNCONFIRMED SOL_Z0_A=9.801 SOL_Z1_A=34.603 PREC=Normal kpoints=1x12x1 configuration_duplicate_of=none pbc="T T T"
Au       0.00000000       0.00000000       5.00000000       0.00073900      -0.00114100      -0.06359200  T
Au       8.82044999       0.00000000      12.20186726      -0.01010300      -0.01260300       0.04710200  F
Au       5.88029999       0.00000000      12.20186726       0.00333000       0.00860300       0.03703300  F
Au       2.94015000       0.00000000      12.20186726      -0.00541600       0.01212400       0.03451100  F
Au       0.00000000       0.00000000      12.20186726      -0.00153700       0.00180800       0.06776900  F
Au      44.10224994       1.69749639       9.80124484      -0.00582300       0.00188500      -0.13034300  F
Au      41.16209995       1.69749639       9.80124484      -0.00647100       0.01195100      -0.14889900  F
Au      11.76059998       0.00000000      12.20186726      -0.00163700       0.00188600       0.02359400  F
Au      38.22194995       1.69749639       9.80124484      -0.02061900       0.00634400      -0.17042400  F
Au      32.34164996       1.69749639       9.80124484       0.02546300       0.01895800      -0.13629800  F
Au      29.40149996       1.69749639       9.80124484       0.00372700       0.02165900      -0.13500400  F
Au      26.46134997       1.69749639       9.80124484       0.01282400       0.01539600      -0.14036600  F
Au      23.52119997       1.69749639       9.80124484      -0.01637000      -0.00021700      -0.15202500  F
Au      20.58104997       1.69749639       9.80124484      -0.00582300       0.00188500      -0.13034300  F
Au      17.64089998       1.69749639       9.80124484      -0.00647100       0.01195100      -0.14889900  F
Au      35.28179995       1.69749639       9.80124484      -0.00942300       0.01282300      -0.16667900  F
Au      14.70074998       1.69749639       9.80124484      -0.02061900       0.00634400      -0.17042400  F
Au      14.70074998       0.00000000      12.20186726       0.00713900       0.01631400       0.04709200  F
Au      20.58104997       0.00000000      12.20186726       0.00251800      -0.00836900       0.03452200  F
Au      17.64089998       0.00000000      12.20186726      -0.00612500      -0.00486100       0.03697000  F
Au      44.10224994       0.00000000      12.20186726       0.00251800      -0.00836900       0.03452100  F
Au      38.22194995       0.00000000      12.20186726       0.00713900       0.01631400       0.04709200  F
Au      35.28179995       0.00000000      12.20186726      -0.00163700       0.00188600       0.02359400  F
Au      32.34164996       0.00000000      12.20186726      -0.01010300      -0.01260300       0.04710200  F
Au      29.40149996       0.00000000      12.20186726       0.00333100       0.00860300       0.03703300  F
Au      26.46134997       0.00000000      12.20186726      -0.00541600       0.01212400       0.03451200  F
Au      23.52119997       0.00000000      12.20186726      -0.00153700       0.00180800       0.06776900  F
Au      41.16209995       0.00000000      12.20186726      -0.00612500      -0.00486100       0.03696900  F
Au      11.76059998       1.69749639       9.80124484      -0.00942300       0.01282300      -0.16667900  F
Au       8.82044999       1.69749639       9.80124484       0.02546300       0.01895800      -0.13629800  F
Au       5.88029999       1.69749639       9.80124484       0.00372600       0.02165900      -0.13500400  F
Au      41.16209995       0.00000000       5.00000000      -0.01424300      -0.01658800      -0.03714900  T
Au      38.22194995       0.00000000       5.00000000       0.00171700      -0.01802200      -0.04053000  T
Au      35.28179995       0.00000000       5.00000000       0.00065000      -0.00092800      -0.04942000  T
Au      32.34164996       0.00000000       5.00000000      -0.00036700       0.01589800      -0.04060800  T
Au      29.40149996       0.00000000       5.00000000       0.01557600       0.01434700      -0.03717800  T
Au      26.46134997       0.00000000       5.00000000       0.02457000       0.01527400      -0.06063100  T
Au      44.10224994       0.00000000       5.00000000      -0.02328000      -0.01740100      -0.06060800  T
Au      23.52119997       0.00000000       5.00000000       0.00073900      -0.00114100      -0.06359200  T
Au      17.64089998       0.00000000       5.00000000      -0.01424300      -0.01658800      -0.03714900  T
Au      14.70074998       0.00000000       5.00000000       0.00171700      -0.01802200      -0.04053100  T
Au      11.76059998       0.00000000       5.00000000       0.00065100      -0.00092900      -0.04942000  T
Au       8.82044999       0.00000000       5.00000000      -0.00036700       0.01589800      -0.04060800  T
Au       5.88029999       0.00000000       5.00000000       0.01557600       0.01434700      -0.03717800  T
Au       2.94015000       0.00000000       5.00000000       0.02457000       0.01527400      -0.06063100  T
Au      20.58104997       0.00000000       5.00000000      -0.02328000      -0.01740100      -0.06060800  T
Au       1.47007500       0.84874820       7.40062242       0.01003300      -0.00543000       0.15829600  T
Au       4.41022499       0.84874820       7.40062242      -0.00944200       0.01609000       0.16831800  T
Au       7.35037499       0.84874820       7.40062242       0.01359700      -0.02264200       0.15989700  T
Au       2.94015000       1.69749639       9.80124484       0.01282400       0.01539600      -0.14036600  F
Au       0.00000000       1.69749639       9.80124484      -0.01637000      -0.00021700      -0.15202500  F
Au      45.57232494       0.84874820       7.40062242      -0.00886200       0.00152100       0.15348900  T
Au      42.63217494       0.84874820       7.40062242      -0.02147700       0.00041200       0.14938800  T
Au      39.69202495       0.84874820       7.40062242       0.01934500      -0.02825500       0.13802500  T
Au      36.75187495       0.84874820       7.40062242       0.02493300      -0.03295400       0.16016900  T
Au      33.81172496       0.84874820       7.40062242      -0.00496700      -0.02388300       0.15358000  T
Au      30.87157496       0.84874820       7.40062242       0.01359700      -0.02264200       0.15989700  T
Au      27.93142496       0.84874820       7.40062242      -0.00944200       0.01609000       0.16831800  T
Au      24.99127497       0.84874820       7.40062242       0.01003300      -0.00543000       0.15829500  T
Au      22.05112497       0.84874820       7.40062242      -0.00886100       0.00152100       0.15348900  T
Au      19.11097498       0.84874820       7.40062242      -0.02147700       0.00041200       0.14938800  T
Au      16.17082498       0.84874820       7.40062242       0.01934500      -0.02825500       0.13802500  T
Au      13.23067498       0.84874820       7.40062242       0.02493300      -0.03295400       0.16016900  T
Au      10.29052499       0.84874820       7.40062242      -0.00496700      -0.02388300       0.15358000  T
64
Lattice="47.042399938778644 0.0 0.0 1.4700749980868326 2.5462445876231135 0.0 0.0 0.0 44.603" Properties=species:S:1:pos:R:3:forces_raw:R:3:fixed:L:1 state_id=Flat16x1_muref geometry_id=Flat16x1 group=v0_main_production config_version="production-2026-09-26 (PREC=Normal, ALGO=Fast, NPAR=16 hybrid)" N_neutral=704.0 N_e_final=704.061404 delta_N_e=0.06140400000003865 mu_e_actual_eV=-4.906897 TARGETMU_eV=-4.9071 mu_e_neutral_eV=-4.979163 E_free_TOTEN_eV=-195.58009204 E_without_entropy_eV=-195.52062183 E_sigma0_eV=-195.56026864 GCE_code_eV=-195.25895 TOTEN_minus_mu_dN_eV=-195.27878893661182 energy_label_status=UNCONFIRMED SOL_Z0_A=9.801 SOL_Z1_A=34.603 PREC=Normal kpoints=1x12x1 configuration_duplicate_of=none pbc="T T T"
Au       0.00000000       0.00000000       5.00000000       0.00083800      -0.00117100      -0.06365800  T
Au       8.82044999       0.00000000      12.20186726      -0.01005900      -0.01264300       0.05272700  F
Au       5.88029999       0.00000000      12.20186726       0.00336600       0.00854800       0.04268100  F
Au       2.94015000       0.00000000      12.20186726      -0.00538200       0.01206000       0.04015800  F
Au       0.00000000       0.00000000      12.20186726      -0.00150100       0.00174700       0.07339800  F
Au      44.10224994       1.69749639       9.80124484      -0.00614900       0.00190700      -0.13539500  F
Au      41.16209995       1.69749639       9.80124484      -0.00678600       0.01197200      -0.15395500  F
Au      11.76059998       0.00000000      12.20186726      -0.00160100       0.00182500       0.02922100  F
Au      38.22194995       1.69749639       9.80124484      -0.02093000       0.00636200      -0.17548000  F
Au      32.34164996       1.69749639       9.80124484       0.02513800       0.01898000      -0.14135100  F
Au      29.40149996       1.69749639       9.80124484       0.00341300       0.02168100      -0.14005800  F
Au      26.46134997       1.69749639       9.80124484       0.01250800       0.01541800      -0.14542000  F
Au      23.52119997       1.69749639       9.80124484      -0.01668700      -0.00019600      -0.15707700  F
Au      20.58104997       1.69749639       9.80124484      -0.00614900       0.00190700      -0.13539500  F
Au      17.64089998       1.69749639       9.80124484      -0.00678600       0.01197200      -0.15395500  F
Au      35.28179995       1.69749639       9.80124484      -0.00973700       0.01284100      -0.17173200  F
Au      14.70074998       1.69749639       9.80124484      -0.02093000       0.00636200      -0.17548000  F
Au      14.70074998       0.00000000      12.20186726       0.00716700       0.01622900       0.05272000  F
Au      20.58104997       0.00000000      12.20186726       0.00255700      -0.00843000       0.04016600  F
Au      17.64089998       0.00000000      12.20186726      -0.00608900      -0.00493000       0.04261800  F
Au      44.10224994       0.00000000      12.20186726       0.00255700      -0.00843000       0.04016600  F
Au      38.22194995       0.00000000      12.20186726       0.00716700       0.01622900       0.05272000  F
Au      35.28179995       0.00000000      12.20186726      -0.00160100       0.00182500       0.02922000  F
Au      32.34164996       0.00000000      12.20186726      -0.01005900      -0.01264300       0.05272700  F
Au      29.40149996       0.00000000      12.20186726       0.00336600       0.00854800       0.04268100  F
Au      26.46134997       0.00000000      12.20186726      -0.00538200       0.01206000       0.04015800  F
Au      23.52119997       0.00000000      12.20186726      -0.00150100       0.00174700       0.07339800  F
Au      41.16209995       0.00000000      12.20186726      -0.00608900      -0.00493000       0.04261800  F
Au      11.76059998       1.69749639       9.80124484      -0.00973700       0.01284100      -0.17173200  F
Au       8.82044999       1.69749639       9.80124484       0.02513800       0.01898000      -0.14135100  F
Au       5.88029999       1.69749639       9.80124484       0.00341300       0.02168100      -0.14005800  F
Au      41.16209995       0.00000000       5.00000000      -0.01414600      -0.01661700      -0.03721400  T
Au      38.22194995       0.00000000       5.00000000       0.00181900      -0.01804700      -0.04059500  T
Au      35.28179995       0.00000000       5.00000000       0.00074900      -0.00095800      -0.04948600  T
Au      32.34164996       0.00000000       5.00000000      -0.00027300       0.01586400      -0.04067300  T
Au      29.40149996       0.00000000       5.00000000       0.01567500       0.01431700      -0.03724300  T
Au      26.46134997       0.00000000       5.00000000       0.02467300       0.01524900      -0.06069600  T
Au      44.10224994       0.00000000       5.00000000      -0.02318600      -0.01743500      -0.06067300  T
Au      23.52119997       0.00000000       5.00000000       0.00083800      -0.00117100      -0.06365800  T
Au      17.64089998       0.00000000       5.00000000      -0.01414600      -0.01661700      -0.03721400  T
Au      14.70074998       0.00000000       5.00000000       0.00181900      -0.01804700      -0.04059400  T
Au      11.76059998       0.00000000       5.00000000       0.00074900      -0.00095800      -0.04948600  T
Au       8.82044999       0.00000000       5.00000000      -0.00027300       0.01586400      -0.04067300  T
Au       5.88029999       0.00000000       5.00000000       0.01567500       0.01431700      -0.03724300  T
Au       2.94015000       0.00000000       5.00000000       0.02467300       0.01524900      -0.06069700  T
Au      20.58104997       0.00000000       5.00000000      -0.02318600      -0.01743500      -0.06067200  T
Au       1.47007500       0.84874820       7.40062242       0.01021700      -0.00535600       0.15777700  T
Au       4.41022499       0.84874820       7.40062242      -0.00925200       0.01616200       0.16780100  T
Au       7.35037499       0.84874820       7.40062242       0.01377500      -0.02257200       0.15938000  T
Au       2.94015000       1.69749639       9.80124484       0.01250800       0.01541800      -0.14542000  F
Au       0.00000000       1.69749639       9.80124484      -0.01668700      -0.00019600      -0.15707700  F
Au      45.57232494       0.84874820       7.40062242      -0.00868400       0.00159100       0.15297100  T
Au      42.63217494       0.84874820       7.40062242      -0.02129800       0.00048000       0.14886900  T
Au      39.69202495       0.84874820       7.40062242       0.01953500      -0.02818100       0.13750500  T
Au      36.75187495       0.84874820       7.40062242       0.02511800      -0.03288200       0.15965000  T
Au      33.81172496       0.84874820       7.40062242      -0.00478800      -0.02381400       0.15306200  T
Au      30.87157496       0.84874820       7.40062242       0.01377500      -0.02257200       0.15937900  T
Au      27.93142496       0.84874820       7.40062242      -0.00925200       0.01616200       0.16780100  T
Au      24.99127497       0.84874820       7.40062242       0.01021700      -0.00535600       0.15777700  T
Au      22.05112497       0.84874820       7.40062242      -0.00868400       0.00159100       0.15297100  T
Au      19.11097498       0.84874820       7.40062242      -0.02129800       0.00048000       0.14886900  T
Au      16.17082498       0.84874820       7.40062242       0.01953500      -0.02818100       0.13750500  T
Au      13.23067498       0.84874820       7.40062242       0.02511800      -0.03288200       0.15965000  T
Au      10.29052499       0.84874820       7.40062242      -0.00478800      -0.02381400       0.15306200  T
72
Lattice="47.042399938778644 0.0 0.0 1.4700749980868326 2.5462445876231135 0.0 0.0 0.0 44.603" Properties=species:S:1:pos:R:3:forces_raw:R:3:fixed:L:1 state_id=Step-16x1_dUp02_fastcfg geometry_id=Step-16x1 group=v0_main_production config_version="production-2026-09-26 (PREC=Normal, ALGO=Fast, NPAR=16 hybrid)" N_neutral=792.0 N_e_final=791.862697 delta_N_e=-0.13730299999997442 mu_e_actual_eV=-5.107525 TARGETMU_eV=-5.1071 mu_e_neutral_eV=-4.950664 E_free_TOTEN_eV=-219.73558603 E_without_entropy_eV=-219.69505555 E_sigma0_eV=-219.72207587 GCE_code_eV=-220.4233 TOTEN_minus_mu_dN_eV=-220.43686453507487 energy_label_status=UNCONFIRMED SOL_Z0_A=9.801 SOL_Z1_A=34.603 PREC=Normal kpoints=1x12x1 configuration_duplicate_of=none pbc="T T T"
Au       0.00000000       0.00000000       5.00000000       0.00547300      -0.00025400      -0.08082500  T
Au       8.82044999       0.00000000      12.20186726      -0.00730500      -0.01189700      -0.14611400  F
Au       5.88029999       0.00000000      12.20186726      -0.00018700       0.01305600      -0.14193400  F
Au       2.94015000       0.00000000      12.20186726      -0.01894800       0.02204700      -0.15247500  F
Au       0.00000000       0.00000000      12.20186726      -0.27842500       0.16183600       0.33583400  F
Au      44.10224994       1.69749639       9.80124484       0.00115900      -0.00078100      -0.11343500  F
Au      41.16209995       1.69749639       9.80124484      -0.00061500       0.00994900      -0.13169700  F
Au      11.76059998       0.00000000      12.20186726       0.00476100      -0.00229400      -0.17430600  F
Au      38.22194995       1.69749639       9.80124484      -0.01903900       0.00514300      -0.15335000  F
Au      32.34164996       1.69749639       9.80124484       0.03020300       0.01669000      -0.12010700  F
Au      29.40149996       1.69749639       9.80124484       0.00412900       0.02230900      -0.12203500  F
Au      26.46134997       1.69749639       9.80124484      -0.04028800       0.04552000      -0.06662300  F
Au      23.52119997       1.69749639       9.80124484      -0.05711400       0.02290200      -0.11424100  F
Au      20.58104997       1.69749639       9.80124484       0.00134200      -0.00690800       0.03090000  F
Au      17.64089998       1.69749639       9.80124484      -0.01819900       0.01536300      -0.00431800  F
Au      35.28179995       1.69749639       9.80124484      -0.01409800       0.01657800      -0.14778400  F
Au      14.70074998       1.69749639       9.80124484      -0.01222600       0.00118800      -0.04008100  F
Au      14.70074998       0.00000000      12.20186726       0.02039100       0.00883600      -0.14222400  F
Au      20.58104997       0.00000000      12.20186726       0.17885700      -0.10695100      -0.00893400  F
Au      16.17082498       0.84874820      14.60300000       0.00921000      -0.00074600       0.07024600  F
Au      13.23067498       0.84874820      14.60300000       0.00744800      -0.01296200       0.03536900  F
Au      10.29052499       0.84874820      14.60300000      -0.00250700       0.00187900       0.04776900  F
Au       7.35037499       0.84874820      14.60300000      -0.00571000      -0.00814800       0.07200200  F
Au       4.41022499       0.84874820      14.60300000       0.04854100      -0.03533200       0.11705300  F
Au       1.47007500       0.84874820      14.60300000       0.33935300      -0.20499900      -0.34878000  F
Au      17.64089998       0.00000000      12.20186726      -0.01263000      -0.00098500      -0.16569400  F
Au      44.10224994       0.00000000      12.20186726      -0.09163700       0.04646800       0.00987900  F
Au      38.22194995       0.00000000      12.20186726       0.00335600       0.01716000       0.03302400  F
Au      35.28179995       0.00000000      12.20186726      -0.00046600      -0.00142700       0.00748800  F
Au      32.34164996       0.00000000      12.20186726      -0.00989000      -0.01552200       0.02855800  F
Au      29.40149996       0.00000000      12.20186726       0.00003200       0.00930600       0.02734100  F
Au      26.46134997       0.00000000      12.20186726       0.04168800      -0.01735200       0.01137200  F
Au      23.52119997       0.00000000      12.20186726       0.19919100      -0.11199800       0.28339200  F
Au      41.16209995       0.00000000      12.20186726      -0.01055600      -0.00329600       0.02857600  F
Au      11.76059998       1.69749639       9.80124484       0.00626000       0.00147400      -0.01714500  F
Au       8.82044999       1.69749639       9.80124484       0.01266400       0.02607200       0.01139400  F
Au       5.88029999       1.69749639       9.80124484       0.01254700       0.01288900       0.00540200  F
Au      41.16209995       0.00000000       5.00000000      -0.01118100      -0.01575100      -0.03154800  T
Au      38.22194995       0.00000000       5.00000000       0.01061000      -0.02283800      -0.03343500  T
Au      35.28179995       0.00000000       5.00000000       0.00066300       0.00005800      -0.04162400  T
Au      32.34164996       0.00000000       5.00000000      -0.00391200       0.02036700      -0.03464900  T
Au      29.40149996       0.00000000       5.00000000       0.01510100       0.01799400      -0.02631700  T
Au      26.46134997       0.00000000       5.00000000       0.02116100       0.01920600      -0.04512800  T
Au      44.10224994       0.00000000       5.00000000      -0.00758500      -0.02439800      -0.05789300  T
Au      23.52119997       0.00000000       5.00000000      -0.01154900       0.01040900      -0.05905200  T
Au      17.64089998       0.00000000       5.00000000      -0.03714200       0.00010100      -0.03780100  T
Au      14.70074998       0.00000000       5.00000000       0.00701600      -0.01751500      -0.07667200  T
Au      11.76059998       0.00000000       5.00000000       0.00704300      -0.00151200      -0.07087200  T
Au       8.82044999       0.00000000       5.00000000      -0.01899600       0.03128600      -0.07130900  T
Au       5.88029999       0.00000000       5.00000000       0.02367600       0.01306400      -0.05062400  T
Au       2.94015000       0.00000000       5.00000000       0.02459800       0.01998600      -0.07923000  T
Au      20.58104997       0.00000000       5.00000000      -0.02903100      -0.01114000      -0.07987500  T
Au       1.47007500       0.84874820       7.40062242       0.00824900      -0.00388000       0.13703300  T
Au       4.41022499       0.84874820       7.40062242      -0.01563500       0.01877600       0.15151500  T
Au       7.35037499       0.84874820       7.40062242       0.01339800      -0.02284300       0.16175000  T
Au       2.94015000       1.69749639       9.80124484       0.04126000      -0.00008100      -0.04811800  F
Au       0.00000000       1.69749639       9.80124484       0.04119200      -0.03329200      -0.05791600  F
Au      45.57232494       0.84874820       7.40062242      -0.01249100       0.00396200       0.15043400  T
Au      42.63217494       0.84874820       7.40062242      -0.02140100       0.00185900       0.15201500  T
Au      39.69202495       0.84874820       7.40062242       0.01194800      -0.02270100       0.13488800  T
Au      36.75187495       0.84874820       7.40062242       0.02442000      -0.03190200       0.15461700  T
Au      33.81172496       0.84874820       7.40062242      -0.00673200      -0.02095100       0.15225600  T
Au      30.87157496       0.84874820       7.40062242       0.01854600      -0.02344200       0.15526500  T
Au      27.93142496       0.84874820       7.40062242      -0.01555800       0.02231400       0.17636300  T
Au      24.99127497       0.84874820       7.40062242       0.00804700      -0.00567500       0.14616500  T
Au      22.05112497       0.84874820       7.40062242      -0.01573600       0.00691800       0.13681700  T
Au      19.11097498       0.84874820       7.40062242      -0.02445100       0.00290700       0.14871700  T
Au      16.17082498       0.84874820       7.40062242       0.01187100      -0.02363300       0.13737100  T
Au      13.23067498       0.84874820       7.40062242       0.00470900      -0.02212100       0.15266100  T
Au      10.29052499       0.84874820       7.40062242      -0.01158000      -0.02052700       0.14836200  T
Au      19.11097498       0.84874820      14.60300000      -0.07402800       0.03525100       0.10072100  F
Au      22.05112497       0.84874820      14.60300000      -0.30326500       0.16493100      -0.35838800  F
72
Lattice="47.042399938778644 0.0 0.0 1.4700749980868326 2.5462445876231135 0.0 0.0 0.0 44.603" Properties=species:S:1:pos:R:3:forces_raw:R:3:fixed:L:1 state_id=Step-16x1_muref_fastcfg geometry_id=Step-16x1 group=v0_main_production config_version="production-2026-09-26 (PREC=Normal, ALGO=Fast, NPAR=16 hybrid)" N_neutral=792.0 N_e_final=792.03871 delta_N_e=0.038710000000037326 mu_e_actual_eV=-4.907016 TARGETMU_eV=-4.9071 mu_e_neutral_eV=-4.950664 E_free_TOTEN_eV=-220.61924435 E_without_entropy_eV=-220.58029191 E_sigma0_eV=-220.60626021 GCE_code_eV=-220.41631 TOTEN_minus_mu_dN_eV=-220.4292937606398 energy_label_status=UNCONFIRMED SOL_Z0_A=9.801 SOL_Z1_A=34.603 PREC=Normal kpoints=1x12x1 configuration_duplicate_of=Step-16x1_muref pbc="T T T"
Au       0.00000000       0.00000000       5.00000000       0.00583900      -0.00042300      -0.08031500  T
Au       8.82044999       0.00000000      12.20186726      -0.00705500      -0.01205400      -0.15157000  F
Au       5.88029999       0.00000000      12.20186726      -0.00166000       0.01400500      -0.14703600  F
Au       2.94015000       0.00000000      12.20186726      -0.01470100       0.01957900      -0.16477900  F
Au       0.00000000       0.00000000      12.20186726      -0.27934800       0.16257800       0.33299400  F
Au      44.10224994       1.69749639       9.80124484       0.00109600      -0.00071700      -0.11830300  F
Au      41.16209995       1.69749639       9.80124484      -0.00083600       0.01021900      -0.13713000  F
Au      11.76059998       0.00000000      12.20186726       0.00504900      -0.00242200      -0.17929400  F
Au      38.22194995       1.69749639       9.80124484      -0.01911800       0.00531500      -0.15894000  F
Au      32.34164996       1.69749639       9.80124484       0.02981900       0.01697600      -0.12563500  F
Au      29.40149996       1.69749639       9.80124484       0.00431400       0.02229500      -0.12748800  F
Au      26.46134997       1.69749639       9.80124484      -0.04015300       0.04551900      -0.07050500  F
Au      23.52119997       1.69749639       9.80124484      -0.05706100       0.02287200      -0.11303200  F
Au      20.58104997       1.69749639       9.80124484       0.00148500      -0.00709600       0.02922300  F
Au      17.64089998       1.69749639       9.80124484      -0.01843800       0.01557600      -0.00499600  F
Au      35.28179995       1.69749639       9.80124484      -0.01391400       0.01661900      -0.15342600  F
Au      14.70074998       1.69749639       9.80124484      -0.01146600       0.00073200      -0.04170200  F
Au      14.70074998       0.00000000      12.20186726       0.02052500       0.00871400      -0.14836700  F
Au      20.58104997       0.00000000      12.20186726       0.17700400      -0.10581800      -0.01985500  F
Au      16.17082498       0.84874820      14.60300000       0.00859500      -0.00020100       0.07629800  F
Au      13.23067498       0.84874820      14.60300000       0.00801700      -0.01317000       0.04165500  F
Au      10.29052499       0.84874820      14.60300000      -0.00329800       0.00262600       0.05395900  F
Au       7.35037499       0.84874820      14.60300000      -0.00485200      -0.00865500       0.07814700  F
Au       4.41022499       0.84874820      14.60300000       0.05027200      -0.03617300       0.12407500  F
Au       1.47007500       0.84874820      14.60300000       0.33611900      -0.20317600      -0.33812400  F
Au      17.64089998       0.00000000      12.20186726      -0.01159100      -0.00147900      -0.17103100  F
Au      44.10224994       0.00000000      12.20186726      -0.09154900       0.04651000       0.01360000  F
Au      38.22194995       0.00000000      12.20186726       0.00357000       0.01710900       0.03802700  F
Au      35.28179995       0.00000000      12.20186726      -0.00039200      -0.00137500       0.01197200  F
Au      32.34164996       0.00000000      12.20186726      -0.00983700      -0.01540100       0.03374300  F
Au      29.40149996       0.00000000      12.20186726       0.00020700       0.00950800       0.03254900  F
Au      26.46134997       0.00000000      12.20186726       0.04206700      -0.01745300       0.01555600  F
Au      23.52119997       0.00000000      12.20186726       0.20075400      -0.11245800       0.28466600  F
Au      41.16209995       0.00000000      12.20186726      -0.01012400      -0.00346600       0.03394100  F
Au      11.76059998       1.69749639       9.80124484       0.00541100       0.00207300      -0.01835300  F
Au       8.82044999       1.69749639       9.80124484       0.01228800       0.02623200       0.01061800  F
Au       5.88029999       1.69749639       9.80124484       0.01403600       0.01214600       0.00273700  F
Au      41.16209995       0.00000000       5.00000000      -0.01060800      -0.01614100      -0.03161700  T
Au      38.22194995       0.00000000       5.00000000       0.01045100      -0.02284500      -0.03292300  T
Au      35.28179995       0.00000000       5.00000000       0.00099600      -0.00031700      -0.04102500  T
Au      32.34164996       0.00000000       5.00000000      -0.00385900       0.02019800      -0.03407700  T
Au      29.40149996       0.00000000       5.00000000       0.01486500       0.01797000      -0.02598800  T
Au      26.46134997       0.00000000       5.00000000       0.02130800       0.01907800      -0.04525000  T
Au      44.10224994       0.00000000       5.00000000      -0.00840400      -0.02396700      -0.05767900  T
Au      23.52119997       0.00000000       5.00000000      -0.01110900       0.01001200      -0.05828000  T
Au      17.64089998       0.00000000       5.00000000      -0.03598900      -0.00059500      -0.03846400  T
Au      14.70074998       0.00000000       5.00000000       0.00662100      -0.01729800      -0.07701500  T
Au      11.76059998       0.00000000       5.00000000       0.00763400      -0.00183000      -0.07095300  T
Au       8.82044999       0.00000000       5.00000000      -0.01923300       0.03132500      -0.07131000  T
Au       5.88029999       0.00000000       5.00000000       0.02282000       0.01343000      -0.05035700  T
Au       2.94015000       0.00000000       5.00000000       0.02465000       0.01976100      -0.08063000  T
Au      20.58104997       0.00000000       5.00000000      -0.03033400      -0.01060400      -0.08157000  T
Au       1.47007500       0.84874820       7.40062242       0.00796000      -0.00375800       0.13706900  T
Au       4.41022499       0.84874820       7.40062242      -0.01632700       0.01909600       0.15378400  T
Au       7.35037499       0.84874820       7.40062242       0.01320100      -0.02276900       0.16135300  T
Au       2.94015000       1.69749639       9.80124484       0.03968100       0.00058700      -0.04669200  F
Au       0.00000000       1.69749639       9.80124484       0.04101700      -0.03289800      -0.05968200  F
Au      45.57232494       0.84874820       7.40062242      -0.01217400       0.00371500       0.15071400  T
Au      42.63217494       0.84874820       7.40062242      -0.02131300       0.00159200       0.15148700  T
Au      39.69202495       0.84874820       7.40062242       0.01223800      -0.02296800       0.13446700  T
Au      36.75187495       0.84874820       7.40062242       0.02451900      -0.03223100       0.15387400  T
Au      33.81172496       0.84874820       7.40062242      -0.00710700      -0.02085700       0.15165100  T
Au      30.87157496       0.84874820       7.40062242       0.01867700      -0.02357000       0.15465900  T
Au      27.93142496       0.84874820       7.40062242      -0.01638600       0.02251100       0.17658300  T
Au      24.99127497       0.84874820       7.40062242       0.00761900      -0.00561600       0.14605800  T
Au      22.05112497       0.84874820       7.40062242      -0.01530000       0.00652200       0.13773300  T
Au      19.11097498       0.84874820       7.40062242      -0.02520900       0.00332700       0.15005600  T
Au      16.17082498       0.84874820       7.40062242       0.01237700      -0.02395000       0.13825900  T
Au      13.23067498       0.84874820       7.40062242       0.00517800      -0.02236000       0.15385200  T
Au      10.29052499       0.84874820       7.40062242      -0.01210800      -0.02034800       0.14970700  T
Au      19.11097498       0.84874820      14.60300000      -0.07573200       0.03611200       0.10843400  F
Au      22.05112497       0.84874820      14.60300000      -0.30169100       0.16402100      -0.35010800  F
36
Lattice="23.521199969389322 0.0 0.0 1.4700749980868326 2.5462445876231135 0.0 0.0 0.0 44.603" Properties=species:S:1:pos:R:3:forces_raw:R:3:fixed:L:1 state_id=Step-8x1_muref_fastcfg geometry_id=Step-8x1 group=v0_main_production config_version="production-2026-09-26 (PREC=Normal, ALGO=Fast, NPAR=16 hybrid)" N_neutral=396.0 N_e_final=396.014694 delta_N_e=0.014694000000019969 mu_e_actual_eV=-4.907015 TARGETMU_eV=-4.9071 mu_e_neutral_eV=-4.939111 E_free_TOTEN_eV=-109.99805616 E_without_entropy_eV=-109.97025045 E_sigma0_eV=-109.98878759 GCE_code_eV=-109.91668 TOTEN_minus_mu_dN_eV=-109.9259524815899 energy_label_status=UNCONFIRMED SOL_Z0_A=9.801 SOL_Z1_A=34.603 PREC=Normal kpoints=2x12x1 configuration_duplicate_of=Step-8x1_muref pbc="T T T"
Au       0.00000000       0.00000000       5.00000000       0.00451500      -0.00267200      -0.07776100  T
Au      11.76059998       1.69749639       9.80124484       0.00154300       0.03769800      -0.11869600  F
Au      14.70074998       1.69749639       9.80124484      -0.04445000       0.03319000      -0.10335900  F
Au      17.64089998       1.69749639       9.80124484       0.03595800       0.01897800      -0.14950100  F
Au      20.58104997       1.69749639       9.80124484      -0.00644600       0.01145200      -0.15626600  F
Au       0.00000000       0.00000000      12.20186726      -0.28162800       0.16503400       0.31915000  F
Au       2.94015000       0.00000000      12.20186726      -0.00703700       0.00703000      -0.14930200  F
Au       8.82044999       1.69749639       9.80124484      -0.00477700       0.00631500       0.00299200  F
Au       5.88029999       0.00000000      12.20186726      -0.02770300       0.01903700      -0.15300700  F
Au      11.76059998       0.00000000      12.20186726       0.19470100      -0.11174100       0.27276200  F
Au      14.70074998       0.00000000      12.20186726       0.03616700      -0.02066200       0.04493200  F
Au      17.64089998       0.00000000      12.20186726      -0.00127400       0.00152500       0.04435000  F
Au      20.58104997       0.00000000      12.20186726      -0.09934300       0.05846600       0.05315500  F
Au       1.47007500       0.84874820      14.60300000       0.32451000      -0.18547500      -0.33023600  F
Au       4.41022499       0.84874820      14.60300000       0.05495300      -0.04297000       0.10614700  F
Au       8.82044999       0.00000000      12.20186726       0.16215600      -0.09076400      -0.00213300  F
Au       5.88029999       1.69749639       9.80124484       0.03910400       0.01256900      -0.01055800  F
Au       2.94015000       1.69749639       9.80124484       0.02205200      -0.00679600      -0.07640600  F
Au       0.00000000       1.69749639       9.80124484       0.09833200      -0.01927100      -0.06370400  F
Au       2.94015000       0.00000000       5.00000000       0.00510600      -0.00164900      -0.10406700  T
Au       5.88029999       0.00000000       5.00000000      -0.00768100       0.00641100      -0.07674700  T
Au       8.82044999       0.00000000       5.00000000      -0.02973000       0.01883000      -0.09630200  T
Au      11.76059998       0.00000000       5.00000000      -0.00071100       0.00177400      -0.05307200  T
Au      14.70074998       0.00000000       5.00000000       0.00166100      -0.00113600      -0.05058600  T
Au      17.64089998       0.00000000       5.00000000      -0.00159300       0.00185400      -0.03909100  T
Au      20.58104997       0.00000000       5.00000000       0.00017900       0.00110700      -0.06440800  T
Au       1.47007500       0.84874820       7.40062242       0.01295000      -0.01377700       0.14034700  T
Au       4.41022499       0.84874820       7.40062242      -0.02285800      -0.02242000       0.16321200  T
Au       7.35037499       0.84874820       7.40062242       0.00442000      -0.01017200       0.16908900  T
Au      10.29052499       0.84874820       7.40062242      -0.03989700      -0.01384000       0.15461700  T
Au      13.23067498       0.84874820       7.40062242      -0.00824700      -0.00524900       0.15262000  T
Au      16.17082498       0.84874820       7.40062242      -0.03021600      -0.01836500       0.16638400  T
Au      19.11097498       0.84874820       7.40062242       0.02352400      -0.02060500       0.15716200  T
Au      22.05112497       0.84874820       7.40062242      -0.02121500      -0.02268500       0.17012200  T
Au       7.35037499       0.84874820      14.60300000      -0.07091800       0.04124000       0.10203100  F
Au      10.29052499       0.84874820      14.60300000      -0.31610800       0.16774100      -0.34386800  F
