       N       E                     dE             d eps       ncg     rms          rms(c)
DAV:   1     0.515543273126E+04    0.51554E+04   -0.26295E+05  4320   0.125E+03
DAV:   2     0.271460639065E+03   -0.48840E+04   -0.44228E+04  5616   0.247E+02
DAV:   3    -0.198596175698E+03   -0.47006E+03   -0.44624E+03  4960   0.745E+01
DAV:   4    -0.210722909912E+03   -0.12127E+02   -0.12013E+02  5424   0.120E+01
DAV:   5    -0.210956026308E+03   -0.23312E+00   -0.23229E+00  5152   0.173E+00    0.552E+01
DAV:   6    -0.195862135611E+03    0.15094E+02   -0.46294E+01  4624   0.125E+01    0.390E+01
DAV:   7    -0.195713899865E+03    0.14824E+00   -0.56295E+00  4560   0.830E+00    0.145E+01
DAV:   8    -0.198697334522E+03   -0.29834E+01   -0.76292E+00  5152   0.178E+01    0.105E+01
DAV:   9    -0.195196637910E+03    0.35007E+01   -0.18711E+00  5936   0.135E+01    0.342E+00
DAV:  10    -0.194992667330E+03    0.20397E+00   -0.58307E-01  4720   0.312E+00    0.768E-01
DAV:  11    -0.195003608279E+03   -0.10941E-01   -0.13437E-01  4784   0.774E-01    0.569E-01
DAV:  12    -0.195000491343E+03    0.31169E-02   -0.36120E-02  4832   0.112E+00    0.522E-01
DAV:  13    -0.194997715619E+03    0.27757E-02   -0.12464E-02  4816   0.739E-01    0.279E-01
DAV:  14    -0.194997452659E+03    0.26296E-03   -0.26431E-03  4624   0.168E-01    0.134E-01
DAV:  15    -0.194997856166E+03   -0.40351E-03   -0.91530E-04  4736   0.178E-01    0.102E-01
DAV:  16    -0.194998215114E+03   -0.35895E-03   -0.65518E-04  4560   0.509E-02    0.522E-02
DAV:  17    -0.194998377978E+03   -0.16286E-03   -0.21708E-04  4640   0.764E-02    0.115E-02
DAV:  18    -0.194998556260E+03   -0.17828E-03   -0.10914E-04  4608   0.289E-02    0.243E-02
DAV:  19    -0.194998565034E+03   -0.87742E-05   -0.14441E-05  4880   0.715E-03    0.263E-02
DAV:  20    -0.194998563882E+03    0.11519E-05   -0.39098E-07  3568   0.130E-03    0.256E-02
DAV:  21    -0.194998598649E+03   -0.34768E-04   -0.10183E-06  3632   0.658E-03    0.299E-02
DAV:  22    -0.194998853398E+03   -0.25475E-03   -0.78581E-05  4480   0.146E-02    0.314E-02
DAV:  23    -0.194998957303E+03   -0.10391E-03   -0.23678E-05  4640   0.218E-02    0.403E-02
DAV:  24    -0.194999068605E+03   -0.11130E-03   -0.18393E-05  4512   0.136E-02    0.467E-02
DAV:  25    -0.194999184665E+03   -0.11606E-03   -0.16277E-05  5776   0.241E-02    0.589E-02
DAV:  26    -0.194999423930E+03   -0.23927E-03   -0.47713E-05  4976   0.399E-02    0.808E-02
DAV:  27    -0.194999570898E+03   -0.14697E-03   -0.32123E-05  4736   0.239E-02    0.940E-02
DAV:  28    -0.194999577942E+03   -0.70447E-05   -0.77740E-06  4480   0.452E-03    0.942E-02
DAV:  29    -0.194999604272E+03   -0.26330E-04   -0.65873E-07  4272   0.308E-03    0.960E-02
DAV:  30    -0.194999607397E+03   -0.31247E-05   -0.25371E-07  3376   0.830E-04    0.963E-02
DAV:  31    -0.194999558693E+03    0.48703E-04   -0.87979E-07  3408   0.612E-03    0.929E-02
DAV:  32    -0.194999217924E+03    0.34077E-03   -0.75333E-05  6272   0.541E-02    0.634E-02
DAV:  33    -0.194999081699E+03    0.13622E-03   -0.56769E-05  4688   0.390E-02    0.415E-02
DAV:  34    -0.194999019218E+03    0.62481E-04   -0.34146E-05  4608   0.269E-02    0.256E-02
DAV:  35    -0.194998987920E+03    0.31298E-04   -0.20200E-05  6256   0.276E-02    0.113E-02
DAV:  36    -0.194998992561E+03   -0.46405E-05   -0.12882E-05  4672   0.115E-02    0.451E-03
DAV:  37    -0.194998997650E+03   -0.50896E-05   -0.29162E-06  5472   0.111E-02    0.286E-03
DAV:  38    -0.194999002929E+03   -0.52789E-05   -0.22247E-06  4528   0.435E-03    0.561E-03
DAV:  39    -0.194999007057E+03   -0.41278E-05   -0.39237E-07  3392   0.232E-03    0.472E-03
DAV:  40    -0.194999001833E+03    0.52241E-05   -0.28983E-07  3024   0.304E-03    0.254E-03
DAV:  41    -0.194999002177E+03   -0.34408E-06   -0.20684E-07  2784   0.203E-03    0.400E-03
DAV:  42    -0.194999006364E+03   -0.41866E-05   -0.11733E-07  2864   0.434E-04    0.376E-03
DAV:  43    -0.194999002877E+03    0.34865E-05   -0.22852E-07  2800   0.265E-03    0.209E-03
DAV:  44    -0.194999002501E+03    0.37614E-06   -0.14542E-07  2896   0.945E-04    0.167E-03
DAV:  45    -0.194999002097E+03    0.40432E-06   -0.56872E-08  2608   0.114E-03    0.994E-04
DAV:  46    -0.194999001710E+03    0.38626E-06   -0.11290E-07  2720   0.169E-03    0.689E-04
DAV:  47    -0.194999001037E+03    0.67326E-06   -0.79550E-08  2624   0.622E-04    0.560E-04
DAV:  48    -0.194999001089E+03   -0.52089E-07   -0.26696E-08  2576   0.141E-04
   1 F= -.19499900E+03 E0= -.19498695E+03  d E =-.361569E-01
CPM-ion: NSTEP=    1 N_ele=   704.000000 mu_e=  -4.907118 TARGETMU=  -4.907100 GCE= -.19498695E+03 cap=   0.500000
