 ----------------------------------------------------
    OOO  PPPP  EEEEE N   N M   M PPPP
   O   O P   P E     NN  N MM MM P   P
   O   O PPPP  EEEEE N N N M M M PPPP   -- VERSION
   O   O P     E     N  NN M   M P
    OOO  P     EEEEE N   N M   M P
 ----------------------------------------------------
 running   16 mpi-ranks, with    1 threads/rank
 distrk:  each k-point on   16 cores,    1 groups
 distr:  one band on    1 cores,   16 groups
 vasp.6.3.2 27Jun22 (build Oct 02 2025 09:19:44) complex                        
  
 POSCAR found type information on POSCAR Au
 POSCAR found :  1 types and       1 ions
 Reading from existing POTCAR
 scaLAPACK will be used
 Reading from existing POTCAR
 LDA part: xc-table for Pade appr. of Perdew
 POSCAR found type information on POSCAR Au
 POSCAR found :  1 types and       1 ions
 POSCAR found type information on POSCAR Au
 POSCAR found :  1 types and       1 ions
 POSCAR, INCAR and KPOINTS ok, starting setup
 FFT: planning ... GRIDC
 FFT: planning ... GRID_SOFT
 FFT: planning ... GRID
 WAVECAR not read
 entering main loop
       N       E                     dE             d eps       ncg     rms          rms(c)
DAV:   1     0.240570291836E+02    0.24057E+02   -0.58719E+03 13088   0.585E+02
DAV:   2    -0.344298796798E+01   -0.27500E+02   -0.26895E+02 18912   0.959E+01
DAV:   3    -0.347251503090E+01   -0.29527E-01   -0.29527E-01 15408   0.443E+00
DAV:   4    -0.347253157492E+01   -0.16544E-04   -0.16545E-04 21664   0.866E-02
DAV:   5    -0.347253157657E+01   -0.16529E-08   -0.72286E-09 15600   0.468E-04    0.724E+00
DAV:   6    -0.322855222356E+01    0.24398E+00   -0.94723E-01 16160   0.503E+00    0.483E+00
DAV:   7    -0.321498879912E+01    0.13563E-01   -0.57713E-02 22752   0.125E+00    0.253E+00
DAV:   8    -0.321333672239E+01    0.16521E-02   -0.83524E-04 15504   0.181E-01    0.188E-01
DAV:   9    -0.321332970365E+01    0.70187E-05   -0.73076E-06 17488   0.166E-02    0.271E-02
DAV:  10    -0.321333692205E+01   -0.72184E-05   -0.39820E-06 19488   0.150E-02    0.177E-03
DAV:  11    -0.321333697682E+01   -0.54776E-07   -0.58330E-08 19648   0.138E-03
   1 F= -.32133370E+01 E0= -.32134306E+01  d E =0.280735E-03
