       N       E                     dE             d eps       ncg     rms          rms(c)
DAV:   1     0.515543273126E+04    0.51554E+04   -0.26295E+05  4320   0.125E+03
DAV:   2     0.271460639065E+03   -0.48840E+04   -0.44228E+04  5616   0.247E+02
DAV:   3    -0.198596175697E+03   -0.47006E+03   -0.44624E+03  4960   0.745E+01
DAV:   4    -0.210722909912E+03   -0.12127E+02   -0.12013E+02  5424   0.120E+01
DAV:   5    -0.210956026308E+03   -0.23312E+00   -0.23229E+00  5152   0.173E+00    0.552E+01
DAV:   6    -0.195862135614E+03    0.15094E+02   -0.46294E+01  4624   0.125E+01    0.390E+01
DAV:   7    -0.195713899871E+03    0.14824E+00   -0.56295E+00  4560   0.830E+00    0.145E+01
DAV:   8    -0.198697334604E+03   -0.29834E+01   -0.76292E+00  5152   0.178E+01    0.105E+01
DAV:   9    -0.195196637897E+03    0.35007E+01   -0.18711E+00  5936   0.135E+01    0.342E+00
DAV:  10    -0.194992667331E+03    0.20397E+00   -0.58307E-01  4720   0.312E+00    0.768E-01
DAV:  11    -0.195003608281E+03   -0.10941E-01   -0.13437E-01  4784   0.774E-01    0.569E-01
DAV:  12    -0.195000491345E+03    0.31169E-02   -0.36120E-02  4832   0.112E+00    0.522E-01
DAV:  13    -0.194997715617E+03    0.27757E-02   -0.12464E-02  4816   0.739E-01    0.279E-01
DAV:  14    -0.194997452660E+03    0.26296E-03   -0.26431E-03  4624   0.168E-01    0.134E-01
DAV:  15    -0.194997856166E+03   -0.40351E-03   -0.91530E-04  4736   0.178E-01    0.102E-01
DAV:  16    -0.194998215113E+03   -0.35895E-03   -0.65518E-04  4560   0.509E-02    0.522E-02
DAV:  17    -0.194998377977E+03   -0.16286E-03   -0.21708E-04  4640   0.764E-02    0.115E-02
DAV:  18    -0.194998556259E+03   -0.17828E-03   -0.10914E-04  4608   0.289E-02    0.243E-02
DAV:  19    -0.194998565033E+03   -0.87740E-05   -0.14441E-05  4880   0.715E-03    0.263E-02
DAV:  20    -0.194998563882E+03    0.11515E-05   -0.39097E-07  3568   0.130E-03    0.256E-02
DAV:  21    -0.194998598639E+03   -0.34758E-04   -0.10178E-06  3632   0.658E-03    0.299E-02
DAV:  22    -0.194998853375E+03   -0.25474E-03   -0.78580E-05  4480   0.146E-02    0.314E-02
DAV:  23    -0.194998957315E+03   -0.10394E-03   -0.23686E-05  4640   0.218E-02    0.403E-02
DAV:  24    -0.194999068629E+03   -0.11131E-03   -0.18399E-05  4512   0.136E-02    0.467E-02
DAV:  25    -0.194999184697E+03   -0.11607E-03   -0.16278E-05  5776   0.241E-02    0.589E-02
DAV:  26    -0.194999423950E+03   -0.23925E-03   -0.47704E-05  4976   0.399E-02    0.809E-02
DAV:  27    -0.194999570922E+03   -0.14697E-03   -0.32120E-05  4736   0.239E-02    0.940E-02
DAV:  28    -0.194999577938E+03   -0.70165E-05   -0.77735E-06  4480   0.452E-03    0.942E-02
DAV:  29    -0.194999604246E+03   -0.26308E-04   -0.65856E-07  4272   0.307E-03    0.960E-02
DAV:  30    -0.194999607309E+03   -0.30636E-05   -0.25351E-07  3376   0.826E-04    0.963E-02
DAV:  31    -0.194999558175E+03    0.49135E-04   -0.89836E-07  3536   0.618E-03    0.929E-02
DAV:  32    -0.194999212709E+03    0.34547E-03   -0.77801E-05  6272   0.551E-02    0.628E-02
DAV:  33    -0.194999080628E+03    0.13208E-03   -0.56473E-05  4736   0.384E-02    0.412E-02
DAV:  34    -0.194999018764E+03    0.61864E-04   -0.33265E-05  4608   0.266E-02    0.255E-02
DAV:  35    -0.194998987800E+03    0.30964E-04   -0.20122E-05  6304   0.276E-02    0.112E-02
DAV:  36    -0.194998992469E+03   -0.46690E-05   -0.12682E-05  4672   0.115E-02    0.442E-03
DAV:  37    -0.194998997637E+03   -0.51685E-05   -0.30103E-06  5472   0.113E-02    0.297E-03
DAV:  38    -0.194999003322E+03   -0.56851E-05   -0.23145E-06  4544   0.449E-03    0.590E-03
DAV:  39    -0.194999007405E+03   -0.40831E-05   -0.43249E-07  3520   0.251E-03    0.487E-03
DAV:  40    -0.194999002660E+03    0.47455E-05   -0.31159E-07  3120   0.308E-03    0.269E-03
DAV:  41    -0.194999002559E+03    0.10108E-06   -0.18736E-07  2832   0.167E-03    0.391E-03
DAV:  42    -0.194999005573E+03   -0.30139E-05   -0.76160E-08  2864   0.779E-04    0.334E-03
DAV:  43    -0.194999002931E+03    0.26411E-05   -0.23765E-07  2800   0.283E-03    0.160E-03
DAV:  44    -0.194999001576E+03    0.13552E-05   -0.22912E-07  3040   0.163E-03    0.837E-04
DAV:  45    -0.194999001468E+03    0.10792E-06   -0.70838E-08  2592   0.839E-04    0.509E-04
DAV:  46    -0.194999001260E+03    0.20793E-06   -0.52941E-08  2768   0.103E-03    0.651E-04
DAV:  47    -0.194999000980E+03    0.28057E-06   -0.35877E-08  2448   0.231E-04    0.551E-04
DAV:  48    -0.194999001136E+03   -0.15584E-06   -0.22193E-08  2544   0.126E-04    0.601E-04
DAV:  49    -0.194999001204E+03   -0.68168E-07   -0.21170E-08  2656   0.201E-04
   1 F= -.19499900E+03 E0= -.19498695E+03  d E =-.361572E-01
