Au                                      
   1.00000000000000     
    23.5211999693893219    0.0000000000000000    0.0000000000000000
     2.9401499961736652    5.0924891752462269    0.0000000000000000
     0.0000000000000000    0.0000000000000000   44.6030000000000015
   Au
    72
Selective dynamics
Direct
  0.0000000000000000  0.0000000000000000  0.1121000829540648   F   F   F
  0.9166666666666643  0.6666666666666643  0.1659220774228274   F   F   F
  0.7916666666666643  0.6666666666666643  0.1659220774228274   F   F   F
  0.6666666666666643  0.6666666666666643  0.1659220774228274   F   F   F
  0.5416666666666643  0.6666666666666643  0.1659220774228274   F   F   F
  0.4166666666666643  0.6666666666666643  0.1659220774228274   F   F   F
  0.2916666666666643  0.6666666666666643  0.1659220774228274   F   F   F
  0.9583333333333357  0.8333333333333357  0.2197440718915971   T   T   T
  0.1666666666666643  0.6666666666666643  0.1659220774228274   F   F   F
  0.8750000000000000  0.5000000000000000  0.1121000829540648   F   F   F
  0.7500000000000000  0.5000000000000000  0.1121000829540648   F   F   F
  0.6250000000000000  0.5000000000000000  0.1121000829540648   F   F   F
  0.5000000000000000  0.5000000000000000  0.1121000829540648   F   F   F
  0.3750000000000000  0.5000000000000000  0.1121000829540648   F   F   F
  0.2500000000000000  0.5000000000000000  0.1121000829540648   F   F   F
  0.0416666666666643  0.6666666666666643  0.1659220774228274   F   F   F
  0.1250000000000000  0.5000000000000000  0.1121000829540648   F   F   F
  0.0833333333333357  0.8333333333333357  0.2197440718915971   T   T   T
  0.3333333333333357  0.8333333333333357  0.2197440718915971   T   T   T
  0.1666666666666643  0.6666666666666643  0.3273995022756324   T   T   T
  0.0416666666666643  0.6666666666666643  0.3273995022756324   T   T   T
  0.8750000000000000  0.5000000000000000  0.2735660663603667   T   T   T
  0.7500000000000000  0.5000000000000000  0.2735660663603667   T   T   T
  0.6250000000000000  0.5000000000000000  0.2735660663603667   T   T   T
  0.5000000000000000  0.5000000000000000  0.2735660663603667   T   T   T
  0.2083333333333357  0.8333333333333357  0.2197440718915971   T   T   T
  0.3750000000000000  0.5000000000000000  0.2735660663603667   T   T   T
  0.1250000000000000  0.5000000000000000  0.2735660663603667   T   T   T
  0.0000000000000000  0.5000000000000000  0.2735660663603667   T   T   T
  0.8333333333333357  0.8333333333333357  0.2197440718915971   T   T   T
  0.7083333333333357  0.8333333333333357  0.2197440718915971   T   T   T
  0.5833333333333357  0.8333333333333357  0.2197440718915971   T   T   T
  0.4583333333333357  0.8333333333333357  0.2197440718915971   T   T   T
  0.2500000000000000  0.5000000000000000  0.2735660663603667   T   T   T
  0.0000000000000000  0.5000000000000000  0.1121000829540648   F   F   F
  0.4166666666666643  0.1666666666666643  0.3273995022756324   T   T   T
  0.2916666666666643  0.1666666666666643  0.3273995022756324   T   T   T
  0.7916666666666643  0.1666666666666643  0.1659220774228274   F   F   F
  0.6666666666666643  0.1666666666666643  0.1659220774228274   F   F   F
  0.5416666666666643  0.1666666666666643  0.1659220774228274   F   F   F
  0.4166666666666643  0.1666666666666643  0.1659220774228274   F   F   F
  0.2916666666666643  0.1666666666666643  0.1659220774228274   F   F   F
  0.1666666666666643  0.1666666666666643  0.1659220774228274   F   F   F
  0.9166666666666643  0.1666666666666643  0.1659220774228274   F   F   F
  0.0416666666666643  0.1666666666666643  0.1659220774228274   F   F   F
  0.7500000000000000  0.0000000000000000  0.1121000829540648   F   F   F
  0.6250000000000000  0.0000000000000000  0.1121000829540648   F   F   F
  0.5000000000000000  0.0000000000000000  0.1121000829540648   F   F   F
  0.3750000000000000  0.0000000000000000  0.1121000829540648   F   F   F
  0.2500000000000000  0.0000000000000000  0.1121000829540648   F   F   F
  0.1250000000000000  0.0000000000000000  0.1121000829540648   F   F   F
  0.8750000000000000  0.0000000000000000  0.1121000829540648   F   F   F
  0.9583333333333357  0.3333333333333357  0.2197440718915971   T   T   T
  0.0833333333333357  0.3333333333333357  0.2197440718915971   T   T   T
  0.2083333333333357  0.3333333333333357  0.2197440718915971   T   T   T
  0.1666666666666643  0.1666666666666643  0.3273995022756324   T   T   T
  0.0416666666666643  0.1666666666666643  0.3273995022756324   T   T   T
  0.8750000000000000  0.0000000000000000  0.2735660663603667   T   T   T
  0.7500000000000000  0.0000000000000000  0.2735660663603667   T   T   T
  0.6250000000000000  0.0000000000000000  0.2735660663603667   T   T   T
  0.5000000000000000  0.0000000000000000  0.2735660663603667   T   T   T
  0.3750000000000000  0.0000000000000000  0.2735660663603667   T   T   T
  0.2500000000000000  0.0000000000000000  0.2735660663603667   T   T   T
  0.1250000000000000  0.0000000000000000  0.2735660663603667   T   T   T
  0.0000000000000000  0.0000000000000000  0.2735660663603667   T   T   T
  0.8333333333333357  0.3333333333333357  0.2197440718915971   T   T   T
  0.7083333333333357  0.3333333333333357  0.2197440718915971   T   T   T
  0.5833333333333357  0.3333333333333357  0.2197440718915971   T   T   T
  0.4583333333333357  0.3333333333333357  0.2197440718915971   T   T   T
  0.3333333333333357  0.3333333333333357  0.2197440718915971   T   T   T
  0.2916666666666643  0.6666666666666643  0.3273995022756324   T   T   T
  0.4166666666666643  0.6666666666666643  0.3273995022756324   T   T   T
 
  0.00000000E+00  0.00000000E+00  0.00000000E+00
  0.00000000E+00  0.00000000E+00  0.00000000E+00
  0.00000000E+00  0.00000000E+00  0.00000000E+00
  0.00000000E+00  0.00000000E+00  0.00000000E+00
  0.00000000E+00  0.00000000E+00  0.00000000E+00
  0.00000000E+00  0.00000000E+00  0.00000000E+00
  0.00000000E+00  0.00000000E+00  0.00000000E+00
  0.00000000E+00  0.00000000E+00  0.00000000E+00
  0.00000000E+00  0.00000000E+00  0.00000000E+00
  0.00000000E+00  0.00000000E+00  0.00000000E+00
  0.00000000E+00  0.00000000E+00  0.00000000E+00
  0.00000000E+00  0.00000000E+00  0.00000000E+00
  0.00000000E+00  0.00000000E+00  0.00000000E+00
  0.00000000E+00  0.00000000E+00  0.00000000E+00
  0.00000000E+00  0.00000000E+00  0.00000000E+00
  0.00000000E+00  0.00000000E+00  0.00000000E+00
  0.00000000E+00  0.00000000E+00  0.00000000E+00
  0.00000000E+00  0.00000000E+00  0.00000000E+00
  0.00000000E+00  0.00000000E+00  0.00000000E+00
  0.00000000E+00  0.00000000E+00  0.00000000E+00
  0.00000000E+00  0.00000000E+00  0.00000000E+00
  0.00000000E+00  0.00000000E+00  0.00000000E+00
  0.00000000E+00  0.00000000E+00  0.00000000E+00
  0.00000000E+00  0.00000000E+00  0.00000000E+00
  0.00000000E+00  0.00000000E+00  0.00000000E+00
  0.00000000E+00  0.00000000E+00  0.00000000E+00
  0.00000000E+00  0.00000000E+00  0.00000000E+00
  0.00000000E+00  0.00000000E+00  0.00000000E+00
  0.00000000E+00  0.00000000E+00  0.00000000E+00
  0.00000000E+00  0.00000000E+00  0.00000000E+00
  0.00000000E+00  0.00000000E+00  0.00000000E+00
  0.00000000E+00  0.00000000E+00  0.00000000E+00
  0.00000000E+00  0.00000000E+00  0.00000000E+00
  0.00000000E+00  0.00000000E+00  0.00000000E+00
  0.00000000E+00  0.00000000E+00  0.00000000E+00
  0.00000000E+00  0.00000000E+00  0.00000000E+00
  0.00000000E+00  0.00000000E+00  0.00000000E+00
  0.00000000E+00  0.00000000E+00  0.00000000E+00
  0.00000000E+00  0.00000000E+00  0.00000000E+00
  0.00000000E+00  0.00000000E+00  0.00000000E+00
  0.00000000E+00  0.00000000E+00  0.00000000E+00
  0.00000000E+00  0.00000000E+00  0.00000000E+00
  0.00000000E+00  0.00000000E+00  0.00000000E+00
  0.00000000E+00  0.00000000E+00  0.00000000E+00
  0.00000000E+00  0.00000000E+00  0.00000000E+00
  0.00000000E+00  0.00000000E+00  0.00000000E+00
  0.00000000E+00  0.00000000E+00  0.00000000E+00
  0.00000000E+00  0.00000000E+00  0.00000000E+00
  0.00000000E+00  0.00000000E+00  0.00000000E+00
  0.00000000E+00  0.00000000E+00  0.00000000E+00
  0.00000000E+00  0.00000000E+00  0.00000000E+00
  0.00000000E+00  0.00000000E+00  0.00000000E+00
  0.00000000E+00  0.00000000E+00  0.00000000E+00
  0.00000000E+00  0.00000000E+00  0.00000000E+00
  0.00000000E+00  0.00000000E+00  0.00000000E+00
  0.00000000E+00  0.00000000E+00  0.00000000E+00
  0.00000000E+00  0.00000000E+00  0.00000000E+00
  0.00000000E+00  0.00000000E+00  0.00000000E+00
  0.00000000E+00  0.00000000E+00  0.00000000E+00
  0.00000000E+00  0.00000000E+00  0.00000000E+00
  0.00000000E+00  0.00000000E+00  0.00000000E+00
  0.00000000E+00  0.00000000E+00  0.00000000E+00
  0.00000000E+00  0.00000000E+00  0.00000000E+00
  0.00000000E+00  0.00000000E+00  0.00000000E+00
  0.00000000E+00  0.00000000E+00  0.00000000E+00
  0.00000000E+00  0.00000000E+00  0.00000000E+00
  0.00000000E+00  0.00000000E+00  0.00000000E+00
  0.00000000E+00  0.00000000E+00  0.00000000E+00
  0.00000000E+00  0.00000000E+00  0.00000000E+00
  0.00000000E+00  0.00000000E+00  0.00000000E+00
  0.00000000E+00  0.00000000E+00  0.00000000E+00
  0.00000000E+00  0.00000000E+00  0.00000000E+00
