       N       E                     dE             d eps       ncg     rms          rms(c)
DAV:   1     0.247210977949E+02    0.24721E+02   -0.57709E+03 13072   0.581E+02
DAV:   2    -0.336620849147E+01   -0.28087E+02   -0.27343E+02 18816   0.954E+01
DAV:   3    -0.339653916209E+01   -0.30331E-01   -0.30331E-01 15744   0.449E+00
DAV:   4    -0.339655787583E+01   -0.18714E-04   -0.18713E-04 21264   0.905E-02
DAV:   5    -0.339655787666E+01   -0.83321E-09   -0.10700E-08 15984   0.549E-04    0.585E+00
DAV:   6    -0.316077908584E+01    0.23578E+00   -0.99237E-01 15024   0.504E+00    0.409E+00
DAV:   7    -0.315114753398E+01    0.96316E-02   -0.41166E-02 22000   0.104E+00    0.231E+00
DAV:   8    -0.314996703715E+01    0.11805E-02   -0.75861E-04 15152   0.183E-01    0.155E-01
DAV:   9    -0.314996248099E+01    0.45562E-05   -0.10653E-05 17744   0.174E-02    0.199E-02
DAV:  10    -0.314997119520E+01   -0.87142E-05   -0.55282E-06 17760   0.173E-02    0.186E-03
DAV:  11    -0.314997124526E+01   -0.50057E-07   -0.46596E-08 20048   0.124E-03
   1 F= -.31499712E+01 E0= -.31500520E+01  d E =0.242247E-03
