Au
 1.0000000000000000
    23.5211999693893219    0.0000000000000000    0.0000000000000000
     2.9401499961736652    5.0924891752462269    0.0000000000000000
     0.0000000000000000    0.0000000000000000   44.6030000000000015
 Au 
  72
Selective dynamics
Cartesian
  0.0000000000000000  0.0000000000000000  5.0000000000000000   F   F   F
 23.5211999693893219  3.3949927834974845  7.4006224192904639   F   F   F
 20.5810499732156558  3.3949927834974845  7.4006224192904639   F   F   F
 17.6408999770419896  3.3949927834974845  7.4006224192904639   F   F   F
 14.7007499808683271  3.3949927834974845  7.4006224192904639   F   F   F
 11.7605999846946627  3.3949927834974845  7.4006224192904639   F   F   F
  8.8204499885209966  3.3949927834974845  7.4006224192904639   F   F   F
  1.4700749980868326  4.2437409793718555  9.8012448385809279   T   T   T
  5.8802999923473305  3.3949927834974845  7.4006224192904639   F   F   F
 22.0511249713024888  2.5462445876231135  5.0000000000000000   F   F   F
 19.1109749751288227  2.5462445876231135  5.0000000000000000   F   F   F
 16.1708249789551601  2.5462445876231135  5.0000000000000000   F   F   F
 13.2306749827814940  2.5462445876231135  5.0000000000000000   F   F   F
 10.2905249866078279  2.5462445876231135  5.0000000000000000   F   F   F
  7.3503749904341635  2.5462445876231135  5.0000000000000000   F   F   F
  2.9401499961736652  3.3949927834974845  7.4006224192904639   F   F   F
  4.4102249942604974  2.5462445876231135  5.0000000000000000   F   F   F
  4.4102249942604974  4.2437409793718555  9.8012448385809279   T   T   T
 10.2905249866078279  4.2437409793718555  9.8012448385809279   T   T   T
  5.8802999923473305  3.3949927834974845 14.6029999999999998   T   T   T
  2.9401499961736652  3.3949927834974845 14.6029999999999998   T   T   T
 22.0511249713024888  2.5462445876231135 12.2018672578713936   T   T   T
 19.1109749751288227  2.5462445876231135 12.2018672578713936   T   T   T
 16.1708249789551601  2.5462445876231135 12.2018672578713936   T   T   T
 13.2306749827814940  2.5462445876231135 12.2018672578713936   T   T   T
  7.3503749904341635  4.2437409793718555  9.8012448385809279   T   T   T
 10.2905249866078279  2.5462445876231135 12.2018672578713936   T   T   T
  4.4102249942604974  2.5462445876231135 12.2018672578713936   T   T   T
  1.4700749980868326  2.5462445876231135 12.2018672578713936   T   T   T
 22.0511249713024924  4.2437409793718555  9.8012448385809279   T   T   T
 19.1109749751288263  4.2437409793718555  9.8012448385809279   T   T   T
 16.1708249789551601  4.2437409793718555  9.8012448385809279   T   T   T
 13.2306749827814940  4.2437409793718555  9.8012448385809279   T   T   T
  7.3503749904341635  2.5462445876231135 12.2018672578713936   T   T   T
  1.4700749980868326  2.5462445876231135  5.0000000000000000   F   F   F
 10.2905249866078297  0.8487481958743711 14.6029999999999998   T   T   T
  7.3503749904341635  0.8487481958743711 14.6029999999999998   T   T   T
 19.1109749751288227  0.8487481958743711  7.4006224192904639   F   F   F
 16.1708249789551566  0.8487481958743711  7.4006224192904639   F   F   F
 13.2306749827814940  0.8487481958743711  7.4006224192904639   F   F   F
 10.2905249866078297  0.8487481958743711  7.4006224192904639   F   F   F
  7.3503749904341635  0.8487481958743711  7.4006224192904639   F   F   F
  4.4102249942604974  0.8487481958743711  7.4006224192904639   F   F   F
 22.0511249713024888  0.8487481958743711  7.4006224192904639   F   F   F
  1.4700749980868326  0.8487481958743711  7.4006224192904639   F   F   F
 17.6408999770419896  0.0000000000000000  5.0000000000000000   F   F   F
 14.7007499808683271  0.0000000000000000  5.0000000000000000   F   F   F
 11.7605999846946609  0.0000000000000000  5.0000000000000000   F   F   F
  8.8204499885209948  0.0000000000000000  5.0000000000000000   F   F   F
  5.8802999923473305  0.0000000000000000  5.0000000000000000   F   F   F
  2.9401499961736652  0.0000000000000000  5.0000000000000000   F   F   F
 20.5810499732156558  0.0000000000000000  5.0000000000000000   F   F   F
  0.0000000000000000  1.6974963917487422  9.8012448385809279   T   T   T
  2.9401499961736652  1.6974963917487422  9.8012448385809279   T   T   T
  5.8802999923473305  1.6974963917487422  9.8012448385809279   T   T   T
  4.4102249942604974  0.8487481958743711 14.6029999999999998   T   T   T
  1.4700749980868326  0.8487481958743711 14.6029999999999998   T   T   T
 20.5810499732156558  0.0000000000000000 12.2018672578713936   T   T   T
 17.6408999770419896  0.0000000000000000 12.2018672578713936   T   T   T
 14.7007499808683271  0.0000000000000000 12.2018672578713936   T   T   T
 11.7605999846946609  0.0000000000000000 12.2018672578713936   T   T   T
  8.8204499885209948  0.0000000000000000 12.2018672578713936   T   T   T
  5.8802999923473305  0.0000000000000000 12.2018672578713936   T   T   T
  2.9401499961736652  0.0000000000000000 12.2018672578713936   T   T   T
  0.0000000000000000  0.0000000000000000 12.2018672578713936   T   T   T
 20.5810499732156593  1.6974963917487422  9.8012448385809279   T   T   T
 17.6408999770419932  1.6974963917487422  9.8012448385809279   T   T   T
 14.7007499808683271  1.6974963917487422  9.8012448385809279   T   T   T
 11.7605999846946609  1.6974963917487422  9.8012448385809279   T   T   T
  8.8204499885209948  1.6974963917487422  9.8012448385809279   T   T   T
  8.8204499885209966  3.3949927834974845 14.6029999999999998   T   T   T
 11.7605999846946627  3.3949927834974845 14.6029999999999998   T   T   T
