65
Lattice="11.760599984694661 0.0 0.0 5.8802999923473305 10.184978350492454 0.0 0.0 0.0 44.603" Properties=species:S:1:pos:R:3:forces:R:3 config_type=Default state_id=A1_fcc_dUm02 geometry_id=A1_fcc potential=-5.109558 electron=714.761478 E_free_TOTEN_eV=-196.14753215 E_without_entropy_eV=-196.09972965 E_sigma0_eV=-196.13159799 GCE_code_eV=-197.34975 TOTEN_minus_mu_dN_eV=-197.36627414327594 pbc="T T T"
Au       0.00000000       0.00000000       5.00000000       0.00549500       0.00317200      -0.00420400
Au       5.88029999       1.69749639       9.80124484       0.00409500      -0.00532100      -0.12863900
Au       8.82044999       1.69749639       9.80124484      -0.00409300      -0.00534800      -0.12878000
Au       1.47007500       4.24374098       9.80124484      -0.00002200      -0.10402600      -0.04541300
Au       4.41022499       4.24374098       9.80124484      -0.00256100       0.00620700      -0.12863900
Au       7.35037499       4.24374098       9.80124484      -0.00002100      -0.00001200      -0.14236500
Au      10.29052499       4.24374098       9.80124484       0.00260400       0.00620700      -0.12863900
Au       2.94015000       6.78998557       9.80124484      -0.00763300       0.00443400      -0.16204100
Au       5.88029999       6.78998557       9.80124484      -0.00667800      -0.00087000      -0.12878000
Au       8.82044999       6.78998557       9.80124484       0.00667800      -0.00084800      -0.12863900
Au      11.76059998       6.78998557       9.80124484       0.00763400       0.00440800      -0.16218500
Au       4.41022499       9.33623015       9.80124484       0.09005800       0.05199500      -0.04541200
Au       7.35037499       9.33623015       9.80124484       0.00001800       0.01616300      -0.17814200
Au      10.29052499       9.33623015       9.80124484      -0.09010000       0.05199400      -0.04541300
Au      13.23067498       9.33623015       9.80124484       0.00002400      -0.00882700      -0.16204100
Au       0.00000000       0.00000000      12.20186726       0.01176300       0.00679100       0.46155200
Au       2.94015000       0.00000000      12.20186726      -0.01175500       0.00679600       0.46097300
Au       5.88029999       0.00000000      12.20186726       0.02972000      -0.00067700      -0.01648500
Au       8.82044999       0.00000000      12.20186726      -0.02971700      -0.00064100      -0.01725200
Au       1.47007500       2.54624459      12.20186726       0.00000800      -0.01357800       0.46097300
Au       4.41022499       2.54624459      12.20186726       0.08600300       0.04965400      -0.02766200
Au       7.35037499       2.54624459      12.20186726       0.00002900      -0.00252200      -0.00209100
Au      10.29052499       2.54624459      12.20186726      -0.08606700       0.04965800      -0.02766600
Au       2.94015000       5.09248918      12.20186726       0.01427400       0.02607600      -0.01648500
Au       5.88029999       5.09248918      12.20186726      -0.00216900       0.00128600      -0.00209100
Au       8.82044999       5.09248918      12.20186726       0.00216800       0.00125200      -0.00132400
Au      11.76059998       5.09248918      12.20186726      -0.01427400       0.02610800      -0.01725300
Au       4.41022499       7.63873376      12.20186726      -0.01541300      -0.02541500      -0.01725200
Au       7.35037499       7.63873376      12.20186726      -0.00002900      -0.09936500      -0.02766600
Au      10.29052499       7.63873376      12.20186726       0.01547300      -0.02541500      -0.01725300
Au       2.94015000       1.69749639       9.80124484      -0.01400700      -0.00808700      -0.17826800
Au      13.23067498       7.63873376      12.20186726      -0.00003000      -0.00001700      -0.01045700
Au       0.00000000       1.69749639       9.80124484       0.01400700      -0.00806600      -0.17814200
Au      11.76059998       8.48748196       7.40062242      -0.00297700       0.00171600       0.17769400
Au       2.94015000       0.00000000       5.00000000      -0.00549500       0.00318200      -0.00321400
Au       5.88029999       0.00000000       5.00000000       0.02065500      -0.01718400      -0.01968900
Au       8.82044999       0.00000000       5.00000000      -0.02065800      -0.01718100      -0.01870400
Au       1.47007500       2.54624459       5.00000000       0.00000900      -0.00635000      -0.00321400
Au       4.41022499       2.54624459       5.00000000       0.01212000       0.00699800       0.00615300
Au       7.35037499       2.54624459       5.00000000       0.00000600       0.01900900      -0.01263700
Au      10.29052499       2.54624459       5.00000000      -0.01213500       0.00699800       0.00615300
Au       2.94015000       5.09248918       5.00000000      -0.00455400       0.02648000      -0.01968900
Au       5.88029999       5.09248918       5.00000000       0.01646600      -0.00949900      -0.01263700
Au       8.82044999       5.09248918       5.00000000      -0.01646400      -0.00950600      -0.01361600
Au      11.76059998       5.09248918       5.00000000       0.00455600       0.02649300      -0.01870400
Au       4.41022499       7.63873376       5.00000000      -0.02520800      -0.00930000      -0.01870400
Au       7.35037499       7.63873376       5.00000000      -0.00000700      -0.01400800       0.00615300
Au      10.29052499       7.63873376       5.00000000       0.02522200      -0.00930200      -0.01870400
Au      13.23067498       7.63873376       5.00000000      -0.00000700      -0.00000400       0.00028400
Au       1.47007500       0.84874820       7.40062242       0.00000100       0.00000100       0.13551700
Au       4.41022499       0.84874820       7.40062242       0.01010800       0.00158700       0.12687600
Au       7.35037499       0.84874820       7.40062242       0.00000100       0.00648800       0.16723500
Au      10.29052499       0.84874820       7.40062242      -0.01010800       0.00158600       0.12687700
Au       2.94015000       3.39499278       7.40062242       0.00642800       0.00796000       0.12687600
Au       5.88029999       3.39499278       7.40062242      -0.00269500      -0.00155600       0.16476200
Au       8.82044999       3.39499278       7.40062242       0.00269700      -0.00155700       0.16231600
Au      11.76059998       3.39499278       7.40062242      -0.00642800       0.00796200       0.12932500
Au       4.41022499       5.94123737       7.40062242       0.00561900      -0.00324300       0.16723500
Au       7.35037499       5.94123737       7.40062242      -0.00000100       0.00311400       0.16231600
Au      10.29052499       5.94123737       7.40062242      -0.00561700      -0.00324300       0.16723400
Au      13.23067498       5.94123737       7.40062242      -0.00000300      -0.00343600       0.17769400
Au       5.88029999       8.48748196       7.40062242      -0.00368000      -0.00954700       0.12687700
Au       8.82044999       8.48748196       7.40062242       0.00368100      -0.00954800       0.12932500
Au      14.70074998       8.48748196       7.40062242       0.00297200       0.00171600       0.18013900
Au       1.47007500       0.84874820      14.60300000       0.00001700       0.00001000      -1.39434800
65
Lattice="11.760599984694661 0.0 0.0 5.8802999923473305 10.184978350492454 0.0 0.0 0.0 44.603" Properties=species:S:1:pos:R:3:forces:R:3 config_type=Default state_id=A1_fcc_dUp00 geometry_id=A1_fcc potential=-4.906938 electron=714.938718 E_free_TOTEN_eV=-197.03224874 E_without_entropy_eV=-196.97531362 E_sigma0_eV=-197.01327036 GCE_code_eV=-197.31399 TOTEN_minus_mu_dN_eV=-197.33295571451603 pbc="T T T"
Au       0.00000000       0.00000000       5.00000000       0.00617900       0.00356700      -0.00685800
Au       5.88029999       1.69749639       9.80124484       0.00557300      -0.00555100      -0.13506800
Au       8.82044999       1.69749639       9.80124484      -0.00557100      -0.00557700      -0.13521000
Au       1.47007500       4.24374098       9.80124484      -0.00002200      -0.10000000      -0.05238500
Au       4.41022499       4.24374098       9.80124484      -0.00202000       0.00760200      -0.13506800
Au       7.35037499       4.24374098       9.80124484      -0.00002100      -0.00001200      -0.14757100
Au      10.29052499       4.24374098       9.80124484       0.00206400       0.00760200      -0.13506800
Au       2.94015000       6.78998557       9.80124484      -0.00829800       0.00481800      -0.16790100
Au       5.88029999       6.78998557       9.80124484      -0.00761600      -0.00203600      -0.13521000
Au       8.82044999       6.78998557       9.80124484       0.00761600      -0.00201400      -0.13506800
Au      11.76059998       6.78998557       9.80124484       0.00829900       0.00479200      -0.16804500
Au       4.41022499       9.33623015       9.80124484       0.08657100       0.04998200      -0.05238400
Au       7.35037499       9.33623015       9.80124484       0.00001800       0.01684700      -0.17826300
Au      10.29052499       9.33623015       9.80124484      -0.08661400       0.04998100      -0.05238500
Au      13.23067498       9.33623015       9.80124484       0.00002400      -0.00959500      -0.16790100
Au       0.00000000       0.00000000      12.20186726       0.00303600       0.00175300       0.44691100
Au       2.94015000       0.00000000      12.20186726      -0.00302600       0.00175600       0.44633000
Au       5.88029999       0.00000000      12.20186726       0.02947600      -0.00070100      -0.01158900
Au       8.82044999       0.00000000      12.20186726      -0.02947300      -0.00066500      -0.01235600
Au       1.47007500       2.54624459      12.20186726       0.00000800      -0.00349800       0.44633000
Au       4.41022499       2.54624459      12.20186726       0.08892200       0.05133900      -0.02444400
Au       7.35037499       2.54624459      12.20186726       0.00002900      -0.00264100       0.00215500
Au      10.29052499       2.54624459      12.20186726      -0.08898600       0.05134300      -0.02444700
Au       2.94015000       5.09248918      12.20186726       0.01413100       0.02587800      -0.01158900
Au       5.88029999       5.09248918      12.20186726      -0.00227200       0.00134600       0.00215500
Au       8.82044999       5.09248918      12.20186726       0.00227100       0.00131100       0.00292200
Au      11.76059998       5.09248918      12.20186726      -0.01413100       0.02590900      -0.01235700
Au       4.41022499       7.63873376      12.20186726      -0.01531300      -0.02519200      -0.01235600
Au       7.35037499       7.63873376      12.20186726      -0.00002800      -0.10273600      -0.02444700
Au      10.29052499       7.63873376      12.20186726       0.01537200      -0.02519200      -0.01235700
Au       2.94015000       1.69749639       9.80124484      -0.01460000      -0.00842900      -0.17839000
Au      13.23067498       7.63873376      12.20186726      -0.00003000      -0.00001700      -0.00568500
Au       0.00000000       1.69749639       9.80124484       0.01459900      -0.00840800      -0.17826300
Au      11.76059998       8.48748196       7.40062242      -0.00302800       0.00174500       0.17774400
Au       2.94015000       0.00000000       5.00000000      -0.00617800       0.00357700      -0.00586800
Au       5.88029999       0.00000000       5.00000000       0.01983900      -0.01627500      -0.01798000
Au       8.82044999       0.00000000       5.00000000      -0.01984200      -0.01627200      -0.01699500
Au       1.47007500       2.54624459       5.00000000       0.00000900      -0.00713900      -0.00586800
Au       4.41022499       2.54624459       5.00000000       0.01151000       0.00664500       0.00487900
Au       7.35037499       2.54624459       5.00000000       0.00000600       0.01842000      -0.01125000
Au      10.29052499       2.54624459       5.00000000      -0.01152400       0.00664500       0.00487900
Au       2.94015000       5.09248918       5.00000000      -0.00417600       0.02531900      -0.01798000
Au       5.88029999       5.09248918       5.00000000       0.01595500      -0.00920500      -0.01125000
Au       8.82044999       5.09248918       5.00000000      -0.01595400      -0.00921100      -0.01222900
Au      11.76059998       5.09248918       5.00000000       0.00417700       0.02533200      -0.01699500
Au       4.41022499       7.63873376       5.00000000      -0.02401300      -0.00904800      -0.01699500
Au       7.35037499       7.63873376       5.00000000      -0.00000700      -0.01330300       0.00487900
Au      10.29052499       7.63873376       5.00000000       0.02402600      -0.00904900      -0.01699500
Au      13.23067498       7.63873376       5.00000000      -0.00000700      -0.00000400       0.00440400
Au       1.47007500       0.84874820       7.40062242       0.00000100       0.00000000       0.13732800
Au       4.41022499       0.84874820       7.40062242       0.00947400       0.00224300       0.12976400
Au       7.35037499       0.84874820       7.40062242       0.00000100       0.00628300       0.16725900
Au      10.29052499       0.84874820       7.40062242      -0.00947500       0.00224200       0.12976500
Au       2.94015000       3.39499278       7.40062242       0.00667900       0.00708400       0.12976400
Au       5.88029999       3.39499278       7.40062242      -0.00204500      -0.00118100       0.16530300
Au       8.82044999       3.39499278       7.40062242       0.00204700      -0.00118200       0.16285600
Au      11.76059998       3.39499278       7.40062242      -0.00668000       0.00708600       0.13221300
Au       4.41022499       5.94123737       7.40062242       0.00544200      -0.00314100       0.16725900
Au       7.35037499       5.94123737       7.40062242      -0.00000000       0.00236400       0.16285600
Au      10.29052499       5.94123737       7.40062242      -0.00544000      -0.00314100       0.16725900
Au      13.23067498       5.94123737       7.40062242      -0.00000300      -0.00349500       0.17774400
Au       5.88029999       8.48748196       7.40062242      -0.00279600      -0.00932700       0.12976500
Au       8.82044999       8.48748196       7.40062242       0.00279700      -0.00932800       0.13221300
Au      14.70074998       8.48748196       7.40062242       0.00302300       0.00174500       0.18018900
Au       1.47007500       0.84874820      14.60300000       0.00001700       0.00001000      -1.35205200
65
Lattice="11.760599984694661 0.0 0.0 5.8802999923473305 10.184978350492454 0.0 0.0 0.0 44.603" Properties=species:S:1:pos:R:3:forces:R:3 config_type=Default state_id=A1_fcc_dUp02 geometry_id=A1_fcc potential=-4.707176 electron=715.117065 E_free_TOTEN_eV=-197.89851185 E_without_entropy_eV=-197.83266883 E_sigma0_eV=-197.87656418 GCE_code_eV=-197.32553 TOTEN_minus_mu_dN_eV=-197.3474662915599 pbc="T T T"
Au       0.00000000       0.00000000       5.00000000       0.00683000       0.00394300      -0.00974500
Au       5.88029999       1.69749639       9.80124484       0.00697400      -0.00571200      -0.14136000
Au       8.82044999       1.69749639       9.80124484      -0.00697200      -0.00573900      -0.14150300
Au       1.47007500       4.24374098       9.80124484      -0.00002200      -0.09565500      -0.05934300
Au       4.41022499       4.24374098       9.80124484      -0.00146000       0.00889600      -0.14136000
Au       7.35037499       4.24374098       9.80124484      -0.00002100      -0.00001200      -0.15269000
Au      10.29052499       4.24374098       9.80124484       0.00150300       0.00889700      -0.14136100
Au       2.94015000       6.78998557       9.80124484      -0.00889900       0.00516500      -0.17348800
Au       5.88029999       6.78998557       9.80124484      -0.00845600      -0.00316800      -0.14150300
Au       8.82044999       6.78998557       9.80124484       0.00845600      -0.00314700      -0.14136100
Au      11.76059998       6.78998557       9.80124484       0.00890000       0.00513800      -0.17363300
Au       4.41022499       9.33623015       9.80124484       0.08280700       0.04780900      -0.05934200
Au       7.35037499       9.33623015       9.80124484       0.00001800       0.01723500      -0.17814500
Au      10.29052499       9.33623015       9.80124484      -0.08285100       0.04780900      -0.05934300
Au      13.23067498       9.33623015       9.80124484       0.00002400      -0.01028900      -0.17348800
Au       0.00000000       0.00000000      12.20186726      -0.00576800      -0.00333000       0.43202300
Au       2.94015000       0.00000000      12.20186726       0.00578000      -0.00332800       0.43144100
Au       5.88029999       0.00000000      12.20186726       0.02917400      -0.00076700      -0.00665700
Au       8.82044999       0.00000000      12.20186726      -0.02917100      -0.00073100      -0.00742500
Au       1.47007500       2.54624459      12.20186726       0.00000800       0.00667000       0.43144100
Au       4.41022499       2.54624459      12.20186726       0.09146700       0.05280800      -0.02100700
Au       7.35037499       2.54624459      12.20186726       0.00002900      -0.00277800       0.00667000
Au      10.29052499       2.54624459      12.20186726      -0.09153000       0.05281200      -0.02101000
Au       2.94015000       5.09248918      12.20186726       0.01392300       0.02564900      -0.00665700
Au       5.88029999       5.09248918      12.20186726      -0.00239100       0.00141400       0.00667000
Au       8.82044999       5.09248918      12.20186726       0.00239000       0.00138000       0.00743800
Au      11.76059998       5.09248918      12.20186726      -0.01392300       0.02568000      -0.00742600
Au       4.41022499       7.63873376      12.20186726      -0.01521900      -0.02489700      -0.00742500
Au       7.35037499       7.63873376      12.20186726      -0.00002800      -0.10567400      -0.02101000
Au      10.29052499       7.63873376      12.20186726       0.01527800      -0.02489800      -0.00742600
Au       2.94015000       1.69749639       9.80124484      -0.01493700      -0.00862400      -0.17827300
Au      13.23067498       7.63873376      12.20186726      -0.00003000      -0.00001700      -0.00062600
Au       0.00000000       1.69749639       9.80124484       0.01493500      -0.00860200      -0.17814500
Au      11.76059998       8.48748196       7.40062242      -0.00297400       0.00171400       0.17759900
Au       2.94015000       0.00000000       5.00000000      -0.00683000       0.00395300      -0.00875500
Au       5.88029999       0.00000000       5.00000000       0.01898300      -0.01526400      -0.01670600
Au       8.82044999       0.00000000       5.00000000      -0.01898600      -0.01526000      -0.01572100
Au       1.47007500       2.54624459       5.00000000       0.00000900      -0.00789100      -0.00875500
Au       4.41022499       2.54624459       5.00000000       0.01089900       0.00629200       0.00311500
Au       7.35037499       2.54624459       5.00000000       0.00000600       0.01768600      -0.01025300
Au      10.29052499       2.54624459       5.00000000      -0.01091400       0.00629300       0.00311500
Au       2.94015000       5.09248918       5.00000000      -0.00372800       0.02407100      -0.01670600
Au       5.88029999       5.09248918       5.00000000       0.01532000      -0.00883800      -0.01025300
Au       8.82044999       5.09248918       5.00000000      -0.01531900      -0.00884400      -0.01123300
Au      11.76059998       5.09248918       5.00000000       0.00372800       0.02408500      -0.01572000
Au       4.41022499       7.63873376       5.00000000      -0.02270900      -0.00881300      -0.01572100
Au       7.35037499       7.63873376       5.00000000      -0.00000700      -0.01259800       0.00311500
Au      10.29052499       7.63873376       5.00000000       0.02272200      -0.00881300      -0.01572000
Au      13.23067498       7.63873376       5.00000000      -0.00000700      -0.00000400       0.00803500
Au       1.47007500       0.84874820       7.40062242       0.00000100       0.00000000       0.13919800
Au       4.41022499       0.84874820       7.40062242       0.00885000       0.00284500       0.13274100
Au       7.35037499       0.84874820       7.40062242       0.00000100       0.00605000       0.16719000
Au      10.29052499       0.84874820       7.40062242      -0.00885100       0.00284400       0.13274100
Au       2.94015000       3.39499278       7.40062242       0.00688800       0.00624200       0.13274100
Au       5.88029999       3.39499278       7.40062242      -0.00131500      -0.00075900       0.16574100
Au       8.82044999       3.39499278       7.40062242       0.00131600      -0.00076000       0.16329300
Au      11.76059998       3.39499278       7.40062242      -0.00688900       0.00624400       0.13519000
Au       4.41022499       5.94123737       7.40062242       0.00524000      -0.00302400       0.16719000
Au       7.35037499       5.94123737       7.40062242      -0.00000000       0.00152000       0.16329300
Au      10.29052499       5.94123737       7.40062242      -0.00523800      -0.00302400       0.16719000
Au      13.23067498       5.94123737       7.40062242      -0.00000300      -0.00343200       0.17759900
Au       5.88029999       8.48748196       7.40062242      -0.00196200      -0.00908700       0.13274100
Au       8.82044999       8.48748196       7.40062242       0.00196300      -0.00908800       0.13519000
Au      14.70074998       8.48748196       7.40062242       0.00296900       0.00171400       0.18004400
Au       1.47007500       0.84874820      14.60300000       0.00001700       0.00001000      -1.30644800
72
Lattice="47.042399938778644 0.0 0.0 1.4700749980868326 2.5462445876231135 0.0 0.0 0.0 44.603" Properties=species:S:1:pos:R:3:forces:R:3 config_type=Default state_id=Step-16x1_muref geometry_id=Step-16x1 potential=-4.908008 electron=792.038384 E_free_TOTEN_eV=-220.64150384 E_without_entropy_eV=-220.60251586 E_sigma0_eV=-220.62850784 GCE_code_eV=-220.44015 TOTEN_minus_mu_dN_eV=-220.45311486092825 pbc="T T T"
Au       0.00000000       0.00000000       5.00000000       0.00585000      -0.00132100      -0.06576100
Au       8.82044999       0.00000000      12.20186726       0.00172200       0.00032800      -0.15286500
Au       5.88029999       0.00000000      12.20186726      -0.00617000       0.00470700      -0.13786800
Au       2.94015000       0.00000000      12.20186726      -0.01141200       0.00865900      -0.15267500
Au       0.00000000       0.00000000      12.20186726      -0.27878300       0.16172300       0.31173500
Au      44.10224994       1.69749639       9.80124484       0.00702300      -0.00401600      -0.13496600
Au      41.16209995       1.69749639       9.80124484       0.00544200      -0.00294300      -0.13451800
Au      11.76059998       0.00000000      12.20186726       0.00529300      -0.00336200      -0.16007900
Au      38.22194995       1.69749639       9.80124484       0.00142200      -0.00247400      -0.13544700
Au      32.34164996       1.69749639       9.80124484       0.00498300      -0.00260100      -0.13661500
Au      29.40149996       1.69749639       9.80124484       0.00118900      -0.00058000      -0.13920000
Au      26.46134997       1.69749639       9.80124484      -0.05371600       0.02859800      -0.07683500
Au      23.52119997       1.69749639       9.80124484      -0.04147800       0.02141100      -0.10829900
Au      20.58104997       1.69749639       9.80124484       0.00743500      -0.01039200       0.01256400
Au      17.64089998       1.69749639       9.80124484      -0.01213300       0.00249800      -0.00258200
Au      35.28179995       1.69749639       9.80124484      -0.00443200       0.00232200      -0.13356700
Au      14.70074998       1.69749639       9.80124484       0.00900200      -0.00704800      -0.01846500
Au      14.70074998       0.00000000      12.20186726       0.01192100      -0.00543100      -0.14949500
Au      20.58104997       0.00000000      12.20186726       0.17365800      -0.09685400      -0.00785600
Au      16.17082498       0.84874820      14.60300000       0.01768100      -0.01050200       0.07302000
Au      13.23067498       0.84874820      14.60300000       0.01413100      -0.00754300       0.06381300
Au      10.29052499       0.84874820      14.60300000      -0.01282100       0.00409400       0.07082100
Au       7.35037499       0.84874820      14.60300000      -0.00419500       0.00022100       0.06668100
Au       4.41022499       0.84874820      14.60300000       0.04813300      -0.03033900       0.10874700
Au       1.47007500       0.84874820      14.60300000       0.32986100      -0.18838500      -0.34050800
Au      17.64089998       0.00000000      12.20186726      -0.00724900       0.00608700      -0.16188100
Au      44.10224994       0.00000000      12.20186726      -0.09511400       0.05552600       0.02447800
Au      38.22194995       0.00000000      12.20186726      -0.00450800       0.00228500       0.03543500
Au      35.28179995       0.00000000      12.20186726      -0.00018200      -0.00233700       0.03171300
Au      32.34164996       0.00000000      12.20186726      -0.00163700      -0.00244100       0.03115700
Au      29.40149996       0.00000000      12.20186726      -0.00481800       0.00053100       0.04078900
Au      26.46134997       0.00000000      12.20186726       0.04569300      -0.02837500       0.02649100
Au      23.52119997       0.00000000      12.20186726       0.20039100      -0.11330500       0.26254700
Au      41.16209995       0.00000000      12.20186726      -0.00511700       0.00360600       0.04228700
Au      11.76059998       1.69749639       9.80124484       0.01483500      -0.01217600       0.00119900
Au       8.82044999       1.69749639       9.80124484      -0.01243600       0.00670700      -0.00053600
Au       5.88029999       1.69749639       9.80124484       0.01078100      -0.01060000      -0.00897900
Au      41.16209995       0.00000000       5.00000000       0.00562400      -0.00157500      -0.04386000
Au      38.22194995       0.00000000       5.00000000       0.00948000      -0.00695200      -0.04133900
Au      35.28179995       0.00000000       5.00000000       0.00105800      -0.00141200      -0.04085000
Au      32.34164996       0.00000000       5.00000000      -0.00278700       0.00238100      -0.04240400
Au      29.40149996       0.00000000       5.00000000      -0.00120500       0.00159100      -0.03821000
Au      26.46134997       0.00000000       5.00000000      -0.00362000       0.00182500      -0.03408100
Au      44.10224994       0.00000000       5.00000000       0.01672000      -0.00862800      -0.04649700
Au      23.52119997       0.00000000       5.00000000      -0.01108700       0.00911000      -0.04372300
Au      17.64089998       0.00000000       5.00000000      -0.01976700       0.01395500      -0.05077300
Au      14.70074998       0.00000000       5.00000000       0.00567400      -0.00145800      -0.08552700
Au      11.76059998       0.00000000       5.00000000       0.00770900      -0.00290500      -0.07091500
Au       8.82044999       0.00000000       5.00000000      -0.01819800       0.01353600      -0.07971500
Au       5.88029999       0.00000000       5.00000000       0.00673500      -0.00293900      -0.06271200
Au       2.94015000       0.00000000       5.00000000      -0.00032600       0.00250500      -0.06945400
Au      20.58104997       0.00000000       5.00000000      -0.00513100       0.00468600      -0.07040200
Au       1.47007500       0.84874820       7.40062242      -0.00097500       0.00175100       0.12899200
Au       4.41022499       0.84874820       7.40062242      -0.00655500       0.00435800       0.13629700
Au       7.35037499       0.84874820       7.40062242      -0.00005600       0.00060500       0.15280600
Au       2.94015000       1.69749639       9.80124484       0.02623700      -0.01630800      -0.05316500
Au       0.00000000       1.69749639       9.80124484       0.05660700      -0.03432700      -0.05489100
Au      45.57232494       0.84874820       7.40062242      -0.00306700       0.00308200       0.14791400
Au      42.63217494       0.84874820       7.40062242      -0.00037300       0.00110000       0.15342300
Au      39.69202495       0.84874820       7.40062242      -0.00810200       0.00555800       0.14640900
Au      36.75187495       0.84874820       7.40062242      -0.00034100       0.00037200       0.14411800
Au      33.81172496       0.84874820       7.40062242      -0.00273900       0.00246100       0.14913400
Au      30.87157496       0.84874820       7.40062242       0.00545500      -0.00019600       0.14606300
Au      27.93142496       0.84874820       7.40062242      -0.00660300       0.00777400       0.15916600
Au      24.99127497       0.84874820       7.40062242      -0.00132000      -0.00009700       0.13804200
Au      22.05112497       0.84874820       7.40062242      -0.00615500       0.00586200       0.13486600
Au      19.11097498       0.84874820       7.40062242      -0.00425400       0.00281300       0.15195400
Au      16.17082498       0.84874820       7.40062242      -0.00798300       0.00453500       0.15021000
Au      13.23067498       0.84874820       7.40062242      -0.01966700       0.01022300       0.14410700
Au      10.29052499       0.84874820       7.40062242      -0.00774700       0.00294600       0.14717700
Au      19.11097498       0.84874820      14.60300000      -0.06084800       0.03488900       0.11054800
Au      22.05112497       0.84874820      14.60300000      -0.30264100       0.17259900      -0.35718500
36
Lattice="23.521199969389322 0.0 0.0 1.4700749980868326 2.5462445876231135 0.0 0.0 0.0 44.603" Properties=species:S:1:pos:R:3:forces:R:3 config_type=Default state_id=Step-8x1_dUp02 geometry_id=Step-8x1 potential=-5.106659 electron=395.923404 E_free_TOTEN_eV=-109.55218325 E_without_entropy_eV=-109.52120595 E_sigma0_eV=-109.54185749 GCE_code_eV=-109.93304 TOTEN_minus_mu_dN_eV=-109.94333290276397 pbc="T T T"
Au       0.00000000       0.00000000       5.00000000       0.00722200      -0.00517700      -0.06889900
Au      11.76059998       1.69749639       9.80124484      -0.03451800       0.01873200      -0.11610800
Au      14.70074998       1.69749639       9.80124484      -0.04280000       0.02433200      -0.08636000
Au      17.64089998       1.69749639       9.80124484       0.00003500      -0.00003600      -0.14084000
Au      20.58104997       1.69749639       9.80124484      -0.00379500       0.00192000      -0.13820500
Au       0.00000000       0.00000000      12.20186726      -0.27849200       0.16220300       0.32347400
Au       2.94015000       0.00000000      12.20186726      -0.00835100       0.00705600      -0.14725000
Au       8.82044999       1.69749639       9.80124484      -0.00152100      -0.00328000       0.01846400
Au       5.88029999       0.00000000      12.20186726      -0.02416700       0.01591100      -0.14626900
Au      11.76059998       0.00000000      12.20186726       0.19617700      -0.11374800       0.27291100
Au      14.70074998       0.00000000      12.20186726       0.03895200      -0.02321400       0.02935800
Au      17.64089998       0.00000000      12.20186726       0.00134100      -0.00109700       0.04016400
Au      20.58104997       0.00000000      12.20186726      -0.09574200       0.05516000       0.03725700
Au       1.47007500       0.84874820      14.60300000       0.33710700      -0.19250600      -0.33941600
Au       4.41022499       0.84874820      14.60300000       0.06063700      -0.03317400       0.10080800
Au       8.82044999       0.00000000      12.20186726       0.16804900      -0.09500100      -0.00185200
Au       5.88029999       1.69749639       9.80124484       0.00174000      -0.00552300      -0.00337600
Au       2.94015000       1.69749639       9.80124484       0.02652400      -0.01702400      -0.06292200
Au       0.00000000       1.69749639       9.80124484       0.06283400      -0.03871400      -0.05858400
Au       2.94015000       0.00000000       5.00000000       0.00864500      -0.00442800      -0.09951000
Au       5.88029999       0.00000000       5.00000000      -0.00408000       0.00348700      -0.06768200
Au       8.82044999       0.00000000       5.00000000      -0.02577200       0.01563800      -0.09262500
Au      11.76059998       0.00000000       5.00000000       0.00182200      -0.00056400      -0.04404500
Au      14.70074998       0.00000000       5.00000000       0.00463800      -0.00376100      -0.04639900
Au      17.64089998       0.00000000       5.00000000       0.00185600      -0.00071200      -0.03047400
Au      20.58104997       0.00000000       5.00000000       0.00443500      -0.00215600      -0.06018700
Au       1.47007500       0.84874820       7.40062242       0.00052000       0.00153100       0.13376600
Au       4.41022499       0.84874820       7.40062242       0.00219200      -0.00058200       0.14481200
Au       7.35037499       0.84874820       7.40062242      -0.00748400       0.00467700       0.16199300
Au      10.29052499       0.84874820       7.40062242      -0.01468300       0.00817700       0.13821300
Au      13.23067498       0.84874820       7.40062242      -0.02082200       0.01034300       0.14625200
Au      16.17082498       0.84874820       7.40062242      -0.00405700       0.00318300       0.15137400
Au      19.11097498       0.84874820       7.40062242       0.01038100      -0.00477900       0.15147000
Au      22.05112497       0.84874820       7.40062242       0.00473600      -0.00112100       0.15477400
Au       7.35037499       0.84874820      14.60300000      -0.06188400       0.03601400       0.09563200
Au      10.29052499       0.84874820      14.60300000      -0.31167400       0.17823100      -0.34971700
36
Lattice="23.521199969389322 0.0 0.0 1.4700749980868326 2.5462445876231135 0.0 0.0 0.0 44.603" Properties=species:S:1:pos:R:3:forces:R:3 config_type=Default state_id=Step-8x1_muref geometry_id=Step-8x1 potential=-4.907178 electron=396.014037 E_free_TOTEN_eV=-110.00726734 E_without_entropy_eV=-109.9794083 E_sigma0_eV=-109.99798099 GCE_code_eV=-109.9291 TOTEN_minus_mu_dN_eV=-109.93838528241413 pbc="T T T"
Au       0.00000000       0.00000000       5.00000000       0.00777400      -0.00544500      -0.06891100
Au      11.76059998       1.69749639       9.80124484      -0.03459100       0.01890500      -0.11532400
Au      14.70074998       1.69749639       9.80124484      -0.04179400       0.02374600      -0.08920700
Au      17.64089998       1.69749639       9.80124484      -0.00036000       0.00018800      -0.14599400
Au      20.58104997       1.69749639       9.80124484      -0.00378400       0.00200500      -0.14212600
Au       0.00000000       0.00000000      12.20186726      -0.27854000       0.16241500       0.32085600
Au       2.94015000       0.00000000      12.20186726      -0.00370000       0.00432600      -0.16028200
Au       8.82044999       1.69749639       9.80124484      -0.00208700      -0.00312800       0.01705900
Au       5.88029999       0.00000000      12.20186726      -0.02472400       0.01636300      -0.15115600
Au      11.76059998       0.00000000      12.20186726       0.19766900      -0.11448000       0.27410500
Au      14.70074998       0.00000000      12.20186726       0.03945000      -0.02346000       0.03364600
Au      17.64089998       0.00000000      12.20186726       0.00185900      -0.00117400       0.04563200
Au      20.58104997       0.00000000      12.20186726      -0.09608900       0.05563100       0.04180700
Au       1.47007500       0.84874820      14.60300000       0.33375200      -0.19052300      -0.32885800
Au       4.41022499       0.84874820      14.60300000       0.06179000      -0.03356200       0.10828000
Au       8.82044999       0.00000000      12.20186726       0.16571800      -0.09357600      -0.01317700
Au       5.88029999       1.69749639       9.80124484       0.00295000      -0.00613200      -0.00707900
Au       2.94015000       1.69749639       9.80124484       0.02477500      -0.01624300      -0.06237900
Au       0.00000000       1.69749639       9.80124484       0.06212500      -0.03799200      -0.06026800
Au       2.94015000       0.00000000       5.00000000       0.00838600      -0.00446200      -0.10047100
Au       5.88029999       0.00000000       5.00000000      -0.00445000       0.00366500      -0.06789100
Au       8.82044999       0.00000000       5.00000000      -0.02649800       0.01600400      -0.09269900
Au      11.76059998       0.00000000       5.00000000       0.00249800      -0.00095900      -0.04422600
Au      14.70074998       0.00000000       5.00000000       0.00493600      -0.00394400      -0.04699700
Au      17.64089998       0.00000000       5.00000000       0.00165900      -0.00089500      -0.03026100
Au      20.58104997       0.00000000       5.00000000       0.00342400      -0.00170500      -0.06081700
Au       1.47007500       0.84874820       7.40062242       0.00034100       0.00154400       0.13355800
Au       4.41022499       0.84874820       7.40062242       0.00273900      -0.00079000       0.14755500
Au       7.35037499       0.84874820       7.40062242      -0.00820700       0.00514600       0.16234300
Au      10.29052499       0.84874820       7.40062242      -0.01428900       0.00777000       0.13898800
Au      13.23067498       0.84874820       7.40062242      -0.02089500       0.01009700       0.14586600
Au      16.17082498       0.84874820       7.40062242      -0.00458400       0.00326800       0.15084400
Au      19.11097498       0.84874820       7.40062242       0.01088100      -0.00525000       0.15041000
Au      22.05112497       0.84874820       7.40062242       0.00443200      -0.00102100       0.15457000
Au       7.35037499       0.84874820      14.60300000      -0.06256600       0.03623300       0.10384800
Au      10.29052499       0.84874820      14.60300000      -0.31000100       0.17743300      -0.34124400
72
Lattice="23.521199969389322 0.0 0.0 2.9401499961736652 5.092489175246227 0.0 0.0 0.0 44.603" Properties=species:S:1:pos:R:3:forces:R:3 config_type=Default state_id=Step-8x2_muref geometry_id=Step-8x2 potential=-4.90737 electron=792.029095 E_free_TOTEN_eV=-220.02225587 E_without_entropy_eV=-219.96658232 E_sigma0_eV=-220.00369802 GCE_code_eV=-219.86092 TOTEN_minus_mu_dN_eV=-219.8794759398501 pbc="T T T"
Au       0.00000000       0.00000000       5.00000000       0.00776600      -0.00543900      -0.06902300
Au      23.52119997       3.39499278       7.40062242       0.00442800      -0.00102000       0.15458200
Au      20.58104997       3.39499278       7.40062242       0.01088500      -0.00525400       0.15042300
Au      17.64089998       3.39499278       7.40062242      -0.00458800       0.00327000       0.15084900
Au      14.70074998       3.39499278       7.40062242      -0.02088600       0.01009100       0.14588000
Au      11.76059998       3.39499278       7.40062242      -0.01427900       0.00776300       0.13899900
Au       8.82044999       3.39499278       7.40062242      -0.00820500       0.00514400       0.16233800
Au       1.47007500       4.24374098       9.80124484       0.06210700      -0.03798000      -0.06023800
Au       5.88029999       3.39499278       7.40062242       0.00273700      -0.00079000       0.14759200
Au      22.05112497       2.54624459       5.00000000       0.00341600      -0.00170100      -0.06092000
Au      19.11097498       2.54624459       5.00000000       0.00166000      -0.00089600      -0.03035700
Au      16.17082498       2.54624459       5.00000000       0.00494000      -0.00394600      -0.04710500
Au      13.23067498       2.54624459       5.00000000       0.00251300      -0.00096700      -0.04432300
Au      10.29052499       2.54624459       5.00000000      -0.02650400       0.01600900      -0.09280700
Au       7.35037499       2.54624459       5.00000000      -0.00445200       0.00366600      -0.06799800
Au       2.94015000       3.39499278       7.40062242       0.00033100       0.00154900       0.13357400
Au       4.41022499       2.54624459       5.00000000       0.00837900      -0.00445900      -0.10057600
Au       4.41022499       4.24374098       9.80124484       0.02476600      -0.01623700      -0.06234200
Au      10.29052499       4.24374098       9.80124484      -0.00209500      -0.00312400       0.01707300
Au       5.88029999       3.39499278      14.60300000       0.06181900      -0.03358100       0.10830400
Au       2.94015000       3.39499278      14.60300000       0.33366300      -0.19045100      -0.32867500
Au      22.05112497       2.54624459      12.20186726      -0.09610500       0.05562600       0.04188900
Au      19.11097498       2.54624459      12.20186726       0.00185600      -0.00117200       0.04564800
Au      16.17082498       2.54624459      12.20186726       0.03944300      -0.02345900       0.03370000
Au      13.23067498       2.54624459      12.20186726       0.19765000      -0.11446400       0.27410500
Au       7.35037499       4.24374098       9.80124484       0.00297700      -0.00614600      -0.00711000
Au      10.29052499       2.54624459      12.20186726       0.16571000      -0.09357300      -0.01313700
Au       4.41022499       2.54624459      12.20186726      -0.00362200       0.00428100      -0.16035400
Au       1.47007500       2.54624459      12.20186726      -0.27851700       0.16240100       0.32085300
Au      22.05112497       4.24374098       9.80124484      -0.00378200       0.00200500      -0.14207200
Au      19.11097498       4.24374098       9.80124484      -0.00036300       0.00019000      -0.14595400
Au      16.17082498       4.24374098       9.80124484      -0.04177300       0.02373300      -0.08916800
Au      13.23067498       4.24374098       9.80124484      -0.03458600       0.01890300      -0.11530000
Au       7.35037499       2.54624459      12.20186726      -0.02474900       0.01637900      -0.15106500
Au       1.47007500       2.54624459       5.00000000       0.00776600      -0.00543900      -0.06902300
Au      10.29052499       0.84874820      14.60300000      -0.30999400       0.17743000      -0.34115200
Au       7.35037499       0.84874820      14.60300000      -0.06254500       0.03621900       0.10386400
Au      19.11097498       0.84874820       7.40062242       0.01088500      -0.00525400       0.15042300
Au      16.17082498       0.84874820       7.40062242      -0.00458800       0.00327000       0.15084900
Au      13.23067498       0.84874820       7.40062242      -0.02088600       0.01009100       0.14588000
Au      10.29052499       0.84874820       7.40062242      -0.01427900       0.00776300       0.13899900
Au       7.35037499       0.84874820       7.40062242      -0.00820500       0.00514400       0.16233800
Au       4.41022499       0.84874820       7.40062242       0.00273700      -0.00079000       0.14759200
Au      22.05112497       0.84874820       7.40062242       0.00442800      -0.00102000       0.15458200
Au       1.47007500       0.84874820       7.40062242       0.00033100       0.00154900       0.13357400
Au      17.64089998       0.00000000       5.00000000       0.00166000      -0.00089600      -0.03035700
Au      14.70074998       0.00000000       5.00000000       0.00494000      -0.00394600      -0.04710500
Au      11.76059998       0.00000000       5.00000000       0.00251300      -0.00096700      -0.04432300
Au       8.82044999       0.00000000       5.00000000      -0.02650400       0.01600900      -0.09280700
Au       5.88029999       0.00000000       5.00000000      -0.00445200       0.00366600      -0.06799800
Au       2.94015000       0.00000000       5.00000000       0.00837900      -0.00445900      -0.10057600
Au      20.58104997       0.00000000       5.00000000       0.00341600      -0.00170100      -0.06092000
Au       0.00000000       1.69749639       9.80124484       0.06210700      -0.03798000      -0.06023800
Au       2.94015000       1.69749639       9.80124484       0.02476600      -0.01623700      -0.06234200
Au       5.88029999       1.69749639       9.80124484       0.00297700      -0.00614600      -0.00711000
Au       4.41022499       0.84874820      14.60300000       0.06181900      -0.03358100       0.10830400
Au       1.47007500       0.84874820      14.60300000       0.33366300      -0.19045100      -0.32867500
Au      20.58104997       0.00000000      12.20186726      -0.09610500       0.05562600       0.04188900
Au      17.64089998       0.00000000      12.20186726       0.00185600      -0.00117200       0.04564800
Au      14.70074998       0.00000000      12.20186726       0.03944300      -0.02345900       0.03370000
Au      11.76059998       0.00000000      12.20186726       0.19765000      -0.11446400       0.27410500
Au       8.82044999       0.00000000      12.20186726       0.16571000      -0.09357300      -0.01313700
Au       5.88029999       0.00000000      12.20186726      -0.02474900       0.01637900      -0.15106500
Au       2.94015000       0.00000000      12.20186726      -0.00362200       0.00428100      -0.16035400
Au       0.00000000       0.00000000      12.20186726      -0.27851700       0.16240100       0.32085300
Au      20.58104997       1.69749639       9.80124484      -0.00378200       0.00200500      -0.14207200
Au      17.64089998       1.69749639       9.80124484      -0.00036300       0.00019000      -0.14595400
Au      14.70074998       1.69749639       9.80124484      -0.04177300       0.02373300      -0.08916800
Au      11.76059998       1.69749639       9.80124484      -0.03458600       0.01890300      -0.11530000
Au       8.82044999       1.69749639       9.80124484      -0.00209500      -0.00312400       0.01707300
Au       8.82044999       3.39499278      14.60300000      -0.06254500       0.03621900       0.10386400
Au      11.76059998       3.39499278      14.60300000      -0.30999400       0.17743000      -0.34115200
64
Lattice="11.760599984694661 0.0 0.0 5.8802999923473305 10.184978350492454 0.0 0.0 0.0 44.603" Properties=species:S:1:pos:R:3:forces:R:3 config_type=Default state_id=T_dUm02 geometry_id=T potential=-5.107917 electron=703.835517 E_free_TOTEN_eV=-194.1761942 E_without_entropy_eV=-194.13809013 E_sigma0_eV=-194.16349285 GCE_code_eV=-195.00352 TOTEN_minus_mu_dN_eV=-195.0163597119111 pbc="T T T"
Au       0.00000000       0.00000000       5.00000000      -0.00000000      -0.00000000      -0.01113200
Au       5.88029999       1.69749639       9.80124484       0.00000000       0.00002600      -0.13722800
Au       8.82044999       1.69749639       9.80124484       0.00000000       0.00000000      -0.13736500
Au       1.47007500       4.24374098       9.80124484      -0.00002200      -0.00001300      -0.13722800
Au       4.41022499       4.24374098       9.80124484       0.00002200      -0.00001300      -0.13722800
Au       7.35037499       4.24374098       9.80124484      -0.00002200      -0.00001300      -0.13722800
Au      10.29052499       4.24374098       9.80124484       0.00002200      -0.00001300      -0.13722800
Au       2.94015000       6.78998557       9.80124484       0.00000000       0.00002600      -0.13722800
Au       5.88029999       6.78998557       9.80124484       0.00000000       0.00000000      -0.13736500
Au       8.82044999       6.78998557       9.80124484       0.00000000       0.00002600      -0.13722800
Au      11.76059998       6.78998557       9.80124484       0.00000000       0.00000000      -0.13736500
Au       4.41022499       9.33623015       9.80124484      -0.00002200      -0.00001300      -0.13722800
Au       7.35037499       9.33623015       9.80124484       0.00002200      -0.00001300      -0.13722800
Au      10.29052499       9.33623015       9.80124484      -0.00002200      -0.00001300      -0.13722800
Au       2.94015000       1.69749639       9.80124484       0.00000000       0.00000000      -0.13736500
Au      13.23067498       9.33623015       9.80124484       0.00002200      -0.00001300      -0.13722800
Au       2.94015000       0.00000000      12.20186726       0.00000000       0.00003500       0.00493200
Au       5.88029999       0.00000000      12.20186726       0.00000000       0.00000000       0.00569700
Au       8.82044999       0.00000000      12.20186726       0.00000000       0.00003500       0.00493200
Au       1.47007500       2.54624459      12.20186726       0.00003000      -0.00001700       0.00493200
Au       4.41022499       2.54624459      12.20186726      -0.00003000      -0.00001700       0.00493200
Au       7.35037499       2.54624459      12.20186726       0.00003000      -0.00001700       0.00493200
Au      10.29052499       2.54624459      12.20186726      -0.00003000      -0.00001700       0.00493200
Au       2.94015000       5.09248918      12.20186726       0.00000000       0.00000000       0.00569700
Au       5.88029999       5.09248918      12.20186726       0.00000000       0.00003500       0.00493200
Au       8.82044999       5.09248918      12.20186726       0.00000000       0.00000000       0.00569700
Au      11.76059998       5.09248918      12.20186726       0.00000000       0.00003500       0.00493200
Au       4.41022499       7.63873376      12.20186726       0.00003000      -0.00001700       0.00493200
Au       7.35037499       7.63873376      12.20186726      -0.00003000      -0.00001700       0.00493200
Au       0.00000000       0.00000000      12.20186726       0.00000000       0.00000000       0.00569700
Au       0.00000000       1.69749639       9.80124484       0.00000000       0.00002600      -0.13722800
Au      14.70074998       8.48748196       7.40062242      -0.00000000      -0.00000000       0.14436900
Au      11.76059998       8.48748196       7.40062242      -0.00000000      -0.00000100       0.14192100
Au       2.94015000       0.00000000       5.00000000      -0.00000000       0.00000900      -0.01014800
Au       5.88029999       0.00000000       5.00000000      -0.00000000      -0.00000000      -0.01113200
Au       8.82044999       0.00000000       5.00000000      -0.00000000       0.00000900      -0.01014800
Au       1.47007500       2.54624459       5.00000000       0.00000700      -0.00000400      -0.01014800
Au       4.41022499       2.54624459       5.00000000      -0.00000700      -0.00000400      -0.01014800
Au       7.35037499       2.54624459       5.00000000       0.00000700      -0.00000400      -0.01014800
Au      10.29052499       2.54624459       5.00000000      -0.00000700      -0.00000400      -0.01014800
Au       2.94015000       5.09248918       5.00000000      -0.00000000      -0.00000000      -0.01113200
Au       5.88029999       5.09248918       5.00000000      -0.00000000       0.00000900      -0.01014800
Au       8.82044999       5.09248918       5.00000000      -0.00000000      -0.00000000      -0.01113200
Au      11.76059998       5.09248918       5.00000000      -0.00000000       0.00000900      -0.01014800
Au       4.41022499       7.63873376       5.00000000       0.00000700      -0.00000400      -0.01014800
Au       7.35037499       7.63873376       5.00000000      -0.00000700      -0.00000400      -0.01014800
Au      10.29052499       7.63873376       5.00000000       0.00000700      -0.00000400      -0.01014800
Au      13.23067498       7.63873376       5.00000000      -0.00000700      -0.00000400      -0.01014800
Au       1.47007500       0.84874820       7.40062242       0.00000100       0.00000000       0.14192100
Au       4.41022499       0.84874820       7.40062242      -0.00000100       0.00000000       0.14192100
Au       7.35037499       0.84874820       7.40062242       0.00000100       0.00000000       0.14192100
Au      10.29052499       0.84874820       7.40062242      -0.00000100       0.00000000       0.14192100
Au       2.94015000       3.39499278       7.40062242      -0.00000000      -0.00000100       0.14192100
Au       5.88029999       3.39499278       7.40062242      -0.00000000       0.00000000       0.14436900
Au       8.82044999       3.39499278       7.40062242      -0.00000000      -0.00000100       0.14192100
Au      11.76059998       3.39499278       7.40062242       0.00000000       0.00000000       0.14436900
Au       4.41022499       5.94123737       7.40062242       0.00000100       0.00000000       0.14192100
Au       7.35037499       5.94123737       7.40062242      -0.00000100       0.00000000       0.14192100
Au      10.29052499       5.94123737       7.40062242       0.00000100       0.00000000       0.14192100
Au      13.23067498       5.94123737       7.40062242      -0.00000100       0.00000000       0.14192100
Au       5.88029999       8.48748196       7.40062242       0.00000000      -0.00000100       0.14192100
Au       8.82044999       8.48748196       7.40062242       0.00000000      -0.00000000       0.14436900
Au      10.29052499       7.63873376      12.20186726       0.00003000      -0.00001700       0.00493200
Au      13.23067498       7.63873376      12.20186726      -0.00003000      -0.00001700       0.00493200
64
Lattice="11.760599984694661 0.0 0.0 5.8802999923473305 10.184978350492454 0.0 0.0 0.0 44.603" Properties=species:S:1:pos:R:3:forces:R:3 config_type=Default state_id=T_dUp00 geometry_id=T potential=-4.907118 electron=704.0 E_free_TOTEN_eV=-194.99900109 E_without_entropy_eV=-194.96284421 E_sigma0_eV=-194.98694879 GCE_code_eV=-194.98695 TOTEN_minus_mu_dN_eV=-194.99900109 pbc="T T T"
Au       0.00000000       0.00000000       5.00000000      -0.00000000      -0.00000000      -0.01043100
Au       5.88029999       1.69749639       9.80124484       0.00000000       0.00002600      -0.14293100
Au       8.82044999       1.69749639       9.80124484       0.00000000       0.00000000      -0.14306900
Au       1.47007500       4.24374098       9.80124484      -0.00002200      -0.00001300      -0.14293100
Au       4.41022499       4.24374098       9.80124484       0.00002200      -0.00001300      -0.14293100
Au       7.35037499       4.24374098       9.80124484      -0.00002200      -0.00001300      -0.14293100
Au      10.29052499       4.24374098       9.80124484       0.00002200      -0.00001300      -0.14293100
Au       2.94015000       6.78998557       9.80124484       0.00000000       0.00002600      -0.14293100
Au       5.88029999       6.78998557       9.80124484       0.00000000       0.00000000      -0.14306900
Au       8.82044999       6.78998557       9.80124484       0.00000000       0.00002600      -0.14293100
Au      11.76059998       6.78998557       9.80124484       0.00000000       0.00000000      -0.14306900
Au       4.41022499       9.33623015       9.80124484      -0.00002200      -0.00001300      -0.14293100
Au       7.35037499       9.33623015       9.80124484       0.00002200      -0.00001300      -0.14293100
Au      10.29052499       9.33623015       9.80124484      -0.00002200      -0.00001300      -0.14293100
Au       2.94015000       1.69749639       9.80124484       0.00000000      -0.00000000      -0.14306900
Au      13.23067498       9.33623015       9.80124484       0.00002200      -0.00001300      -0.14293100
Au       2.94015000       0.00000000      12.20186726       0.00000000       0.00003500       0.00871600
Au       5.88029999       0.00000000      12.20186726       0.00000000       0.00000000       0.00948100
Au       8.82044999       0.00000000      12.20186726       0.00000000       0.00003500       0.00871600
Au       1.47007500       2.54624459      12.20186726       0.00003000      -0.00001700       0.00871600
Au       4.41022499       2.54624459      12.20186726      -0.00003000      -0.00001700       0.00871600
Au       7.35037499       2.54624459      12.20186726       0.00003000      -0.00001700       0.00871600
Au      10.29052499       2.54624459      12.20186726      -0.00003000      -0.00001700       0.00871600
Au       2.94015000       5.09248918      12.20186726       0.00000000       0.00000000       0.00948100
Au       5.88029999       5.09248918      12.20186726       0.00000000       0.00003500       0.00871600
Au       8.82044999       5.09248918      12.20186726       0.00000000       0.00000000       0.00948100
Au      11.76059998       5.09248918      12.20186726       0.00000000       0.00003500       0.00871600
Au       4.41022499       7.63873376      12.20186726       0.00003000      -0.00001700       0.00871600
Au       7.35037499       7.63873376      12.20186726      -0.00003000      -0.00001700       0.00871600
Au       0.00000000       0.00000000      12.20186726       0.00000000       0.00000000       0.00948100
Au       0.00000000       1.69749639       9.80124484      -0.00000000       0.00002600      -0.14293100
Au      14.70074998       8.48748196       7.40062242      -0.00000000      -0.00000000       0.14558700
Au      11.76059998       8.48748196       7.40062242      -0.00000000      -0.00000100       0.14313900
Au       2.94015000       0.00000000       5.00000000      -0.00000000       0.00000900      -0.00944600
Au       5.88029999       0.00000000       5.00000000      -0.00000000      -0.00000000      -0.01043100
Au       8.82044999       0.00000000       5.00000000      -0.00000000       0.00000900      -0.00944700
Au       1.47007500       2.54624459       5.00000000       0.00000700      -0.00000400      -0.00944600
Au       4.41022499       2.54624459       5.00000000      -0.00000700      -0.00000400      -0.00944700
Au       7.35037499       2.54624459       5.00000000       0.00000700      -0.00000400      -0.00944700
Au      10.29052499       2.54624459       5.00000000      -0.00000700      -0.00000400      -0.00944700
Au       2.94015000       5.09248918       5.00000000      -0.00000000      -0.00000000      -0.01043100
Au       5.88029999       5.09248918       5.00000000      -0.00000000       0.00000900      -0.00944600
Au       8.82044999       5.09248918       5.00000000      -0.00000000      -0.00000000      -0.01043100
Au      11.76059998       5.09248918       5.00000000      -0.00000000       0.00000900      -0.00944600
Au       4.41022499       7.63873376       5.00000000       0.00000700      -0.00000400      -0.00944600
Au       7.35037499       7.63873376       5.00000000      -0.00000700      -0.00000400      -0.00944600
Au      10.29052499       7.63873376       5.00000000       0.00000700      -0.00000400      -0.00944600
Au      13.23067498       7.63873376       5.00000000      -0.00000700      -0.00000400      -0.00944600
Au       1.47007500       0.84874820       7.40062242       0.00000100       0.00000000       0.14313900
Au       4.41022499       0.84874820       7.40062242      -0.00000100       0.00000000       0.14313900
Au       7.35037499       0.84874820       7.40062242       0.00000100       0.00000000       0.14313900
Au      10.29052499       0.84874820       7.40062242      -0.00000100       0.00000000       0.14313900
Au       2.94015000       3.39499278       7.40062242      -0.00000000      -0.00000100       0.14313900
Au       5.88029999       3.39499278       7.40062242      -0.00000000      -0.00000000       0.14558700
Au       8.82044999       3.39499278       7.40062242      -0.00000000      -0.00000100       0.14313900
Au      11.76059998       3.39499278       7.40062242      -0.00000000      -0.00000000       0.14558700
Au       4.41022499       5.94123737       7.40062242       0.00000100       0.00000000       0.14313900
Au       7.35037499       5.94123737       7.40062242      -0.00000100       0.00000000       0.14313900
Au      10.29052499       5.94123737       7.40062242       0.00000100       0.00000000       0.14313900
Au      13.23067498       5.94123737       7.40062242      -0.00000100       0.00000000       0.14313900
Au       5.88029999       8.48748196       7.40062242      -0.00000000      -0.00000100       0.14313900
Au       8.82044999       8.48748196       7.40062242      -0.00000000      -0.00000000       0.14558700
Au      10.29052499       7.63873376      12.20186726       0.00003000      -0.00001700       0.00871600
Au      13.23067498       7.63873376      12.20186726      -0.00003000      -0.00001700       0.00871600
64
Lattice="11.760599984694661 0.0 0.0 5.8802999923473305 10.184978350492454 0.0 0.0 0.0 44.603" Properties=species:S:1:pos:R:3:forces:R:3 config_type=Default state_id=T_dUp02 geometry_id=T potential=-4.707643 electron=704.166912 E_free_TOTEN_eV=-195.81198756 E_without_entropy_eV=-195.77645416 E_sigma0_eV=-195.80014309 GCE_code_eV=-195.01447 TOTEN_minus_mu_dN_eV=-195.02622545158388 pbc="T T T"
Au       0.00000000       0.00000000       5.00000000       0.00000000       0.00000000      -0.00967200
Au       5.88029999       1.69749639       9.80124484       0.00000000       0.00002600      -0.14895000
Au       8.82044999       1.69749639       9.80124484       0.00000000       0.00000000      -0.14908900
Au       1.47007500       4.24374098       9.80124484      -0.00002200      -0.00001300      -0.14895000
Au       4.41022499       4.24374098       9.80124484       0.00002200      -0.00001300      -0.14895000
Au       7.35037499       4.24374098       9.80124484      -0.00002200      -0.00001300      -0.14895000
Au      10.29052499       4.24374098       9.80124484       0.00002200      -0.00001300      -0.14895000
Au       2.94015000       6.78998557       9.80124484       0.00000000       0.00002600      -0.14895000
Au       5.88029999       6.78998557       9.80124484       0.00000000       0.00000000      -0.14908900
Au       8.82044999       6.78998557       9.80124484       0.00000000       0.00002600      -0.14895000
Au      11.76059998       6.78998557       9.80124484       0.00000000       0.00000000      -0.14908900
Au       4.41022499       9.33623015       9.80124484      -0.00002200      -0.00001300      -0.14895000
Au       7.35037499       9.33623015       9.80124484       0.00002200      -0.00001300      -0.14895000
Au      10.29052499       9.33623015       9.80124484      -0.00002200      -0.00001300      -0.14895000
Au       2.94015000       1.69749639       9.80124484       0.00000000       0.00000000      -0.14908900
Au      13.23067498       9.33623015       9.80124484       0.00002200      -0.00001300      -0.14895000
Au       2.94015000       0.00000000      12.20186726      -0.00000000       0.00003500       0.01229800
Au       5.88029999       0.00000000      12.20186726      -0.00000000      -0.00000000       0.01306300
Au       8.82044999       0.00000000      12.20186726      -0.00000000       0.00003500       0.01229800
Au       1.47007500       2.54624459      12.20186726       0.00003000      -0.00001700       0.01229800
Au       4.41022499       2.54624459      12.20186726      -0.00003000      -0.00001700       0.01229800
Au       7.35037499       2.54624459      12.20186726       0.00003000      -0.00001700       0.01229800
Au      10.29052499       2.54624459      12.20186726      -0.00003000      -0.00001700       0.01229800
Au       2.94015000       5.09248918      12.20186726      -0.00000000      -0.00000000       0.01306300
Au       5.88029999       5.09248918      12.20186726      -0.00000000       0.00003500       0.01229800
Au       8.82044999       5.09248918      12.20186726      -0.00000000      -0.00000000       0.01306300
Au      11.76059998       5.09248918      12.20186726      -0.00000000       0.00003500       0.01229800
Au       4.41022499       7.63873376      12.20186726       0.00003000      -0.00001700       0.01229800
Au       7.35037499       7.63873376      12.20186726      -0.00003000      -0.00001700       0.01229800
Au       0.00000000       0.00000000      12.20186726      -0.00000000      -0.00000000       0.01306300
Au       0.00000000       1.69749639       9.80124484       0.00000000       0.00002600      -0.14895000
Au      14.70074998       8.48748196       7.40062242      -0.00000000      -0.00000000       0.14726500
Au      11.76059998       8.48748196       7.40062242      -0.00000000      -0.00000100       0.14481700
Au       2.94015000       0.00000000       5.00000000       0.00000000       0.00000800      -0.00868700
Au       5.88029999       0.00000000       5.00000000       0.00000000       0.00000000      -0.00967200
Au       8.82044999       0.00000000       5.00000000       0.00000000       0.00000800      -0.00868700
Au       1.47007500       2.54624459       5.00000000       0.00000700      -0.00000400      -0.00868700
Au       4.41022499       2.54624459       5.00000000      -0.00000700      -0.00000400      -0.00868700
Au       7.35037499       2.54624459       5.00000000       0.00000700      -0.00000400      -0.00868700
Au      10.29052499       2.54624459       5.00000000      -0.00000700      -0.00000400      -0.00868700
Au       2.94015000       5.09248918       5.00000000       0.00000000       0.00000000      -0.00967200
Au       5.88029999       5.09248918       5.00000000       0.00000000       0.00000800      -0.00868700
Au       8.82044999       5.09248918       5.00000000       0.00000000       0.00000000      -0.00967200
Au      11.76059998       5.09248918       5.00000000       0.00000000       0.00000800      -0.00868700
Au       4.41022499       7.63873376       5.00000000       0.00000700      -0.00000400      -0.00868700
Au       7.35037499       7.63873376       5.00000000      -0.00000700      -0.00000400      -0.00868700
Au      10.29052499       7.63873376       5.00000000       0.00000700      -0.00000400      -0.00868700
Au      13.23067498       7.63873376       5.00000000      -0.00000700      -0.00000400      -0.00868700
Au       1.47007500       0.84874820       7.40062242       0.00000100       0.00000000       0.14481700
Au       4.41022499       0.84874820       7.40062242      -0.00000100       0.00000000       0.14481700
Au       7.35037499       0.84874820       7.40062242       0.00000100       0.00000000       0.14481700
Au      10.29052499       0.84874820       7.40062242      -0.00000100       0.00000000       0.14481700
Au       2.94015000       3.39499278       7.40062242      -0.00000000      -0.00000100       0.14481700
Au       5.88029999       3.39499278       7.40062242      -0.00000000      -0.00000000       0.14726500
Au       8.82044999       3.39499278       7.40062242      -0.00000000      -0.00000100       0.14481700
Au      11.76059998       3.39499278       7.40062242       0.00000000      -0.00000000       0.14726500
Au       4.41022499       5.94123737       7.40062242       0.00000100       0.00000000       0.14481700
Au       7.35037499       5.94123737       7.40062242      -0.00000100       0.00000000       0.14481700
Au      10.29052499       5.94123737       7.40062242       0.00000100       0.00000000       0.14481700
Au      13.23067498       5.94123737       7.40062242      -0.00000100       0.00000000       0.14481700
Au       5.88029999       8.48748196       7.40062242      -0.00000000      -0.00000100       0.14481700
Au       8.82044999       8.48748196       7.40062242      -0.00000000      -0.00000000       0.14726500
Au      10.29052499       7.63873376      12.20186726       0.00003000      -0.00001700       0.01229800
Au      13.23067498       7.63873376      12.20186726      -0.00003000      -0.00001700       0.01229800
63
Lattice="11.760599984694661 0.0 0.0 5.8802999923473305 10.184978350492454 0.0 0.0 0.0 44.603" Properties=species:S:1:pos:R:3:forces:R:3 config_type=Default state_id=V1_dUm02 geometry_id=V1 potential=-5.107683 electron=692.843135 E_free_TOTEN_eV=-190.42491961 E_without_entropy_eV=-190.35673325 E_sigma0_eV=-190.40219082 GCE_code_eV=-191.20332 TOTEN_minus_mu_dN_eV=-191.2261363037952 pbc="T T T"
Au       0.00000000       0.00000000       5.00000000       0.00000100       0.00973600      -0.03250300
Au       2.94015000       1.69749639       9.80124484      -0.00562600      -0.00278900      -0.13028100
Au       5.88029999       1.69749639       9.80124484       0.00000100       0.12691500      -0.04091600
Au       8.82044999       1.69749639       9.80124484       0.00562800      -0.00278900      -0.13028100
Au       1.47007500       4.24374098       9.80124484      -0.00525300      -0.00349300      -0.13014600
Au       4.41022499       4.24374098       9.80124484       0.20153300       0.11631800       0.16768500
Au       7.35037499       4.24374098       9.80124484      -0.20153300       0.11631800       0.16768500
Au      10.29052499       4.24374098       9.80124484       0.00525500      -0.00349200      -0.13014600
Au       2.94015000       6.78998557       9.80124484       0.10988600      -0.06341700      -0.04091300
Au       5.88029999       6.78998557       9.80124484       0.00000000      -0.23260900       0.16751800
Au       8.82044999       6.78998557       9.80124484      -0.10988400      -0.06341700      -0.04091300
Au      11.76059998       6.78998557       9.80124484       0.00000100       0.01230800      -0.14524100
Au       4.41022499       9.33623015       9.80124484       0.00037700       0.00625500      -0.13014600
Au       7.35037499       9.33623015       9.80124484      -0.00037500       0.00625500      -0.13014600
Au       0.00000000       1.69749639       9.80124484       0.00000100       0.00002900      -0.11947800
Au      10.29052499       9.33623015       9.80124484       0.01063500      -0.00616600      -0.14510200
Au       0.00000000       0.00000000      12.20186726      -0.00000100      -0.02537000       0.01737400
Au       2.94015000       0.00000000      12.20186726      -0.00745800       0.00433800       0.02262400
Au       5.88029999       0.00000000      12.20186726      -0.00000100       0.01924900       0.02746500
Au       8.82044999       0.00000000      12.20186726       0.00745500       0.00433900       0.02262400
Au       1.47007500       2.54624459      12.20186726       0.02199900       0.01267000       0.01660900
Au       4.41022499       2.54624459      12.20186726      -0.00234700      -0.00737600      -0.16207000
Au       7.35037499       2.54624459      12.20186726       0.00234600      -0.00737500      -0.16207000
Au      10.29052499       2.54624459      12.20186726      -0.02200100       0.01266900       0.01660900
Au       2.94015000       5.09248918      12.20186726      -0.00737800       0.00170600      -0.16134100
Au       8.82044999       5.09248918      12.20186726       0.00737500       0.00170600      -0.16134100
Au      11.76059998       5.09248918      12.20186726      -0.00000200      -0.00857500       0.02261700
Au       4.41022499       7.63873376      12.20186726      -0.00524200       0.00563600      -0.16207000
Au       7.35037499       7.63873376      12.20186726       0.00524000       0.00563500      -0.16207000
Au      13.23067498       9.33623015       9.80124484      -0.01063400      -0.00616600      -0.14510200
Au      10.29052499       7.63873376      12.20186726      -0.01664100      -0.00964800       0.02669900
Au      14.70074998       8.48748196       7.40062242      -0.00577900      -0.01203600       0.14115100
Au       8.82044999       8.48748196       7.40062242       0.00577800      -0.01203600       0.14115000
Au       2.94015000       0.00000000       5.00000000      -0.00276800       0.00160800      -0.02321100
Au       5.88029999       0.00000000       5.00000000       0.00000000       0.00494400      -0.02561000
Au       8.82044999       0.00000000       5.00000000       0.00276900       0.00160700      -0.02321100
Au       1.47007500       2.54624459       5.00000000      -0.00842400      -0.00487300      -0.03151900
Au       4.41022499       2.54624459       5.00000000      -0.00887000       0.00783600      -0.01914500
Au       7.35037499       2.54624459       5.00000000       0.00887100       0.00783600      -0.01914500
Au      10.29052499       2.54624459       5.00000000       0.00842500      -0.00487300      -0.03151900
Au       2.94015000       5.09248918       5.00000000       0.00235900      -0.01159500      -0.02012800
Au       5.88029999       5.09248918       5.00000000       0.00000100       0.00001000      -0.06520000
Au       8.82044999       5.09248918       5.00000000      -0.00235800      -0.01159500      -0.02012800
Au      11.76059998       5.09248918       5.00000000       0.00000100      -0.00318800      -0.02321000
Au       4.41022499       7.63873376       5.00000000       0.01123100       0.00374900      -0.01914300
Au       7.35037499       7.63873376       5.00000000      -0.01123000       0.00375000      -0.01914400
Au      11.76059998       8.48748196       7.40062242      -0.00000000      -0.00000100       0.14306900
Au      10.29052499       7.63873376       5.00000000      -0.00427500      -0.00247800      -0.02462800
Au       1.47007500       0.84874820       7.40062242      -0.02032600       0.01173400       0.13244800
Au       4.41022499       0.84874820       7.40062242       0.01331100       0.00101400       0.13870300
Au       7.35037499       0.84874820       7.40062242      -0.01331200       0.00101400       0.13870500
Au      10.29052499       0.84874820       7.40062242       0.02032600       0.01173400       0.13244800
Au       2.94015000       3.39499278       7.40062242      -0.03859700      -0.02228700       0.09345400
Au       5.88029999       3.39499278       7.40062242      -0.00000000       0.00617400       0.16473200
Au       8.82044999       3.39499278       7.40062242       0.03859700      -0.02228700       0.09345300
Au      11.76059998       3.39499278       7.40062242      -0.00000000      -0.02347400       0.13489600
Au       4.41022499       5.94123737       7.40062242       0.00535000      -0.00308900       0.16228700
Au       7.35037499       5.94123737       7.40062242      -0.00535100      -0.00308900       0.16227500
Au      10.29052499       5.94123737       7.40062242      -0.00753300       0.01102300       0.13870500
Au      13.23067498       5.94123737       7.40062242       0.00753300       0.01102300       0.13870400
Au       5.88029999       8.48748196       7.40062242      -0.00000000       0.04456800       0.09345400
Au      13.23067498       7.63873376       5.00000000       0.00427600      -0.00247800      -0.02462800
Au      13.23067498       7.63873376      12.20186726       0.01663900      -0.00964800       0.02669900
63
Lattice="11.760599984694661 0.0 0.0 5.8802999923473305 10.184978350492454 0.0 0.0 0.0 44.603" Properties=species:S:1:pos:R:3:forces:R:3 config_type=Default state_id=V1_dUp00 geometry_id=V1 potential=-4.907015 electron=693.010903 E_free_TOTEN_eV=-191.26535657 E_without_entropy_eV=-191.20495737 E_sigma0_eV=-191.2452235 GCE_code_eV=-191.19172 TOTEN_minus_mu_dN_eV=-191.21185538545507 pbc="T T T"
Au       0.00000000       0.00000000       5.00000000      -0.00000000       0.00911800      -0.03193100
Au       2.94015000       1.69749639       9.80124484      -0.00604600      -0.00277500      -0.13492100
Au       5.88029999       1.69749639       9.80124484       0.00000000       0.12634100      -0.04664400
Au       8.82044999       1.69749639       9.80124484       0.00604600      -0.00277500      -0.13492100
Au       1.47007500       4.24374098       9.80124484      -0.00545100      -0.00386300      -0.13478600
Au       4.41022499       4.24374098       9.80124484       0.20223400       0.11672300       0.16336600
Au       7.35037499       4.24374098       9.80124484      -0.20223400       0.11672300       0.16336600
Au      10.29052499       4.24374098       9.80124484       0.00545200      -0.00386300      -0.13478600
Au       2.94015000       6.78998557       9.80124484       0.10938800      -0.06313000      -0.04664200
Au       5.88029999       6.78998557       9.80124484       0.00000000      -0.23341900       0.16319800
Au       8.82044999       6.78998557       9.80124484      -0.10938800      -0.06313000      -0.04664200
Au      11.76059998       6.78998557       9.80124484       0.00000000       0.01271300      -0.14885800
Au       4.41022499       9.33623015       9.80124484       0.00059800       0.00661100      -0.13478600
Au       7.35037499       9.33623015       9.80124484      -0.00059800       0.00661100      -0.13478600
Au       0.00000000       1.69749639       9.80124484       0.00000000       0.00002900      -0.12236100
Au      10.29052499       9.33623015       9.80124484       0.01098600      -0.00637000      -0.14871900
Au       0.00000000       0.00000000      12.20186726       0.00000000      -0.02627600       0.02153600
Au       2.94015000       0.00000000      12.20186726      -0.00769600       0.00447800       0.02676200
Au       5.88029999       0.00000000      12.20186726       0.00000000       0.02010400       0.03193900
Au       8.82044999       0.00000000      12.20186726       0.00769600       0.00447800       0.02676200
Au       1.47007500       2.54624459      12.20186726       0.02278500       0.01312400       0.02077100
Au       4.41022499       2.54624459      12.20186726      -0.00121100      -0.00644100      -0.15626500
Au       7.35037499       2.54624459      12.20186726       0.00121100      -0.00644000      -0.15626500
Au      10.29052499       2.54624459      12.20186726      -0.02278500       0.01312400       0.02077100
Au       2.94015000       5.09248918      12.20186726      -0.00600100       0.00222300      -0.15553500
Au       8.82044999       5.09248918      12.20186726       0.00600100       0.00222300      -0.15553500
Au      11.76059998       5.09248918      12.20186726       0.00000000      -0.00885000       0.02675500
Au       4.41022499       7.63873376      12.20186726      -0.00500000       0.00418500      -0.15626500
Au       7.35037499       7.63873376      12.20186726       0.00500100       0.00418600      -0.15626500
Au      13.23067498       9.33623015       9.80124484      -0.01098600      -0.00637000      -0.14871900
Au      10.29052499       7.63873376      12.20186726      -0.01738000      -0.01007500       0.03117300
Au      14.70074998       8.48748196       7.40062242      -0.00592200      -0.01167100       0.14093500
Au       8.82044999       8.48748196       7.40062242       0.00592200      -0.01167100       0.14093500
Au       2.94015000       0.00000000       5.00000000      -0.00273900       0.00159000      -0.02217800
Au       5.88029999       0.00000000       5.00000000      -0.00000000       0.00617400      -0.02531800
Au       8.82044999       0.00000000       5.00000000       0.00273900       0.00159000      -0.02217800
Au       1.47007500       2.54624459       5.00000000      -0.00788900      -0.00456400      -0.03094600
Au       4.41022499       2.54624459       5.00000000      -0.00872500       0.00829400      -0.01947100
Au       7.35037499       2.54624459       5.00000000       0.00872500       0.00829400      -0.01947100
Au      10.29052499       2.54624459       5.00000000       0.00788900      -0.00456400      -0.03094600
Au       2.94015000       5.09248918       5.00000000       0.00282800      -0.01169800      -0.02045400
Au       5.88029999       5.09248918       5.00000000      -0.00000000       0.00000900      -0.06504400
Au       8.82044999       5.09248918       5.00000000      -0.00282800      -0.01169800      -0.02045400
Au      11.76059998       5.09248918       5.00000000      -0.00000000      -0.00315400      -0.02217800
Au       4.41022499       7.63873376       5.00000000       0.01155500       0.00339400      -0.01947000
Au       7.35037499       7.63873376       5.00000000      -0.01155500       0.00339400      -0.01946900
Au      11.76059998       8.48748196       7.40062242      -0.00000000      -0.00000000       0.14213200
Au      10.29052499       7.63873376       5.00000000      -0.00534100      -0.00309300      -0.02433500
Au       1.47007500       0.84874820       7.40062242      -0.02058300       0.01188300       0.13059800
Au       4.41022499       0.84874820       7.40062242       0.01306800       0.00070700       0.13848900
Au       7.35037499       0.84874820       7.40062242      -0.01306800       0.00070700       0.13848900
Au      10.29052499       0.84874820       7.40062242       0.02058300       0.01188300       0.13059800
Au       2.94015000       3.39499278       7.40062242      -0.03818900      -0.02205100       0.09377200
Au       5.88029999       3.39499278       7.40062242      -0.00000000       0.00683200       0.16522600
Au       8.82044999       3.39499278       7.40062242       0.03818900      -0.02205100       0.09377200
Au      11.76059998       3.39499278       7.40062242      -0.00000000      -0.02377100       0.13304600
Au       4.41022499       5.94123737       7.40062242       0.00592000      -0.00341700       0.16278100
Au       7.35037499       5.94123737       7.40062242      -0.00592000      -0.00341700       0.16278100
Au      10.29052499       5.94123737       7.40062242      -0.00714500       0.01096500       0.13848900
Au      13.23067498       5.94123737       7.40062242       0.00714500       0.01096500       0.13848900
Au       5.88029999       8.48748196       7.40062242      -0.00000000       0.04409700       0.09377400
Au      13.23067498       7.63873376       5.00000000       0.00534100      -0.00309300      -0.02433500
Au      13.23067498       7.63873376      12.20186726       0.01738000      -0.01007500       0.03117300
63
Lattice="11.760599984694661 0.0 0.0 5.8802999923473305 10.184978350492454 0.0 0.0 0.0 44.603" Properties=species:S:1:pos:R:3:forces:R:3 config_type=Default state_id=V1_dUp02 geometry_id=V1 potential=-4.707257 electron=693.180361 E_free_TOTEN_eV=-192.09220835 E_without_entropy_eV=-192.03944336 E_sigma0_eV=-192.07462002 GCE_code_eV=-191.22564 TOTEN_minus_mu_dN_eV=-191.24320277022323 pbc="T T T"
Au       0.00000000       0.00000000       5.00000000      -0.00000000       0.00851000      -0.03038800
Au       2.94015000       1.69749639       9.80124484      -0.00644000      -0.00272000      -0.14046800
Au       5.88029999       1.69749639       9.80124484       0.00000000       0.12587600      -0.05336300
Au       8.82044999       1.69749639       9.80124484       0.00644100      -0.00272000      -0.14046800
Au       1.47007500       4.24374098       9.80124484      -0.00560000      -0.00423200      -0.14033300
Au       4.41022499       4.24374098       9.80124484       0.20300800       0.11716900       0.15826300
Au       7.35037499       4.24374098       9.80124484      -0.20300800       0.11716900       0.15826300
Au      10.29052499       4.24374098       9.80124484       0.00560000      -0.00423200      -0.14033300
Au       2.94015000       6.78998557       9.80124484       0.10898600      -0.06289800      -0.05336100
Au       5.88029999       6.78998557       9.80124484       0.00000000      -0.23431300       0.15809500
Au       8.82044999       6.78998557       9.80124484      -0.10898600      -0.06289800      -0.05336100
Au      11.76059998       6.78998557       9.80124484       0.00000000       0.01310800      -0.15345200
Au       4.41022499       9.33623015       9.80124484       0.00084300       0.00692400      -0.14033300
Au       7.35037499       9.33623015       9.80124484      -0.00084300       0.00692400      -0.14033300
Au       0.00000000       1.69749639       9.80124484       0.00000000       0.00002900      -0.12616800
Au      10.29052499       9.33623015       9.80124484       0.01132800      -0.00656700      -0.15331200
Au       0.00000000       0.00000000      12.20186726      -0.00000000      -0.02726000       0.02511300
Au       2.94015000       0.00000000      12.20186726      -0.00797600       0.00464000       0.03034900
Au       5.88029999       0.00000000      12.20186726      -0.00000000       0.02098800       0.03590500
Au       8.82044999       0.00000000      12.20186726       0.00797600       0.00464000       0.03034900
Au       1.47007500       2.54624459      12.20186726       0.02363600       0.01361500       0.02434800
Au       4.41022499       2.54624459      12.20186726      -0.00000500      -0.00541800      -0.15103000
Au       7.35037499       2.54624459      12.20186726       0.00000400      -0.00541700      -0.15103100
Au      10.29052499       2.54624459      12.20186726      -0.02363600       0.01361500       0.02434800
Au       2.94015000       5.09248918      12.20186726      -0.00451300       0.00275600      -0.15030100
Au       8.82044999       5.09248918      12.20186726       0.00451300       0.00275700      -0.15030100
Au      11.76059998       5.09248918      12.20186726      -0.00000000      -0.00917500       0.03034200
Au       4.41022499       7.63873376      12.20186726      -0.00471800       0.00262800      -0.15103000
Au       7.35037499       7.63873376      12.20186726       0.00471900       0.00262900      -0.15103000
Au      13.23067498       9.33623015       9.80124484      -0.01132800      -0.00656700      -0.15331200
Au      10.29052499       7.63873376      12.20186726      -0.01814600      -0.01051700       0.03514000
Au      14.70074998       8.48748196       7.40062242      -0.00614800      -0.01122600       0.14118300
Au       8.82044999       8.48748196       7.40062242       0.00614800      -0.01122600       0.14118300
Au       2.94015000       0.00000000       5.00000000      -0.00267900       0.00155500      -0.02022400
Au       5.88029999       0.00000000       5.00000000      -0.00000000       0.00739200      -0.02406100
Au       8.82044999       0.00000000       5.00000000       0.00267900       0.00155500      -0.02022400
Au       1.47007500       2.54624459       5.00000000      -0.00736300      -0.00426000      -0.02940300
Au       4.41022499       2.54624459       5.00000000      -0.00867400       0.00865900      -0.01875000
Au       7.35037499       2.54624459       5.00000000       0.00867400       0.00865900      -0.01875000
Au      10.29052499       2.54624459       5.00000000       0.00736300      -0.00426000      -0.02940300
Au       2.94015000       5.09248918       5.00000000       0.00317000      -0.01183600      -0.01973300
Au       5.88029999       5.09248918       5.00000000      -0.00000000       0.00000900      -0.06349700
Au       8.82044999       5.09248918       5.00000000      -0.00317000      -0.01183600      -0.01973300
Au      11.76059998       5.09248918       5.00000000      -0.00000000      -0.00308500      -0.02022300
Au       4.41022499       7.63873376       5.00000000       0.01184500       0.00316700      -0.01874900
Au       7.35037499       7.63873376       5.00000000      -0.01184500       0.00316700      -0.01874800
Au      11.76059998       8.48748196       7.40062242      -0.00000000      -0.00000000       0.14166600
Au      10.29052499       7.63873376       5.00000000      -0.00639600      -0.00370300      -0.02307800
Au       1.47007500       0.84874820       7.40062242      -0.02090700       0.01207000       0.12919000
Au       4.41022499       0.84874820       7.40062242       0.01279500       0.00028900       0.13873700
Au       7.35037499       0.84874820       7.40062242      -0.01279500       0.00028900       0.13873700
Au      10.29052499       0.84874820       7.40062242       0.02090700       0.01207000       0.12919000
Au       2.94015000       3.39499278       7.40062242      -0.03789000      -0.02187900       0.09447800
Au       5.88029999       3.39499278       7.40062242      -0.00000000       0.00744700       0.16605300
Au       8.82044999       3.39499278       7.40062242       0.03789000      -0.02187900       0.09447800
Au      11.76059998       3.39499278       7.40062242      -0.00000000      -0.02414500       0.13163900
Au       4.41022499       5.94123737       7.40062242       0.00645300      -0.00372500       0.16360800
Au       7.35037499       5.94123737       7.40062242      -0.00645300      -0.00372500       0.16360700
Au      10.29052499       5.94123737       7.40062242      -0.00664700       0.01093800       0.13873700
Au      13.23067498       5.94123737       7.40062242       0.00664700       0.01093800       0.13873700
Au       5.88029999       8.48748196       7.40062242       0.00000000       0.04375200       0.09447900
Au      13.23067498       7.63873376       5.00000000       0.00639600      -0.00370300      -0.02307800
Au      13.23067498       7.63873376      12.20186726       0.01814600      -0.01051700       0.03514000
