Au
 1.0000000000000000
     7.2018672578713918    0.0000000000000000    0.0000000000000000
     0.0000000000000000   11.7605999846946609    0.0000000000000000
     0.0000000000000000    0.0000000000000000   39.3362301546180859
 Au 
  48
Cartesian
  4.8012448385809279  1.4700749980868328 24.3362301546180859
  4.8012448385809279  7.3503749904341635 19.2437409793718572
  4.8012448385809279 10.2905249866078279 19.2437409793718572
  2.4006224192904644  0.0000000000000002 18.3949927834974858
  2.4006224192904644  2.9401499961736657 18.3949927834974858
  2.4006224192904644  5.8802999923473305 18.3949927834974858
  2.4006224192904644  8.8204499885209948 18.3949927834974858
  0.0000000000000000  1.4700749980868326 17.5462445876231143
  0.0000000000000000  4.4102249942604974 17.5462445876231143
  0.0000000000000000  7.3503749904341635 17.5462445876231143
  4.8012448385809279  4.4102249942604983 19.2437409793718572
  0.0000000000000000 10.2905249866078279 17.5462445876231143
  4.8012448385809288  2.9401499961736652 16.6974963917487429
  4.8012448385809288  5.8802999923473305 16.6974963917487429
  4.8012448385809288  8.8204499885209948 16.6974963917487429
  2.4006224192904639  1.4700749980868326 15.8487481958743714
  2.4006224192904639  4.4102249942604974 15.8487481958743714
  2.4006224192904639  7.3503749904341635 15.8487481958743714
  2.4006224192904639 10.2905249866078279 15.8487481958743714
  0.0000000000000000  0.0000000000000000 15.0000000000000000
  0.0000000000000000  2.9401499961736652 15.0000000000000000
  4.8012448385809288  0.0000000000000002 16.6974963917487429
  4.8012448385809279  1.4700749980868328 19.2437409793718572
  0.0000000000000000  8.8204499885209948 20.0924891752462287
  0.0000000000000000  5.8802999923473305 20.0924891752462287
  4.8012448385809279  4.4102249942604983 24.3362301546180859
  4.8012448385809279  7.3503749904341635 24.3362301546180859
  4.8012448385809279 10.2905249866078279 24.3362301546180859
  2.4006224192904644  0.0000000000000002 23.4874819587437145
  2.4006224192904644  2.9401499961736657 23.4874819587437145
  2.4006224192904644  5.8802999923473305 23.4874819587437145
  2.4006224192904644  8.8204499885209948 23.4874819587437145
  0.0000000000000000  1.4700749980868326 22.6387337628693430
  0.0000000000000000  4.4102249942604974 22.6387337628693430
  0.0000000000000000  7.3503749904341635 22.6387337628693430
  0.0000000000000000 10.2905249866078279 22.6387337628693430
  4.8012448385809288  0.0000000000000002 21.7899855669949716
  4.8012448385809288  2.9401499961736652 21.7899855669949716
  4.8012448385809288  5.8802999923473305 21.7899855669949716
  4.8012448385809288  8.8204499885209948 21.7899855669949716
  2.4006224192904639  1.4700749980868326 20.9412373711206001
  2.4006224192904639  4.4102249942604974 20.9412373711206001
  2.4006224192904639  7.3503749904341635 20.9412373711206001
  2.4006224192904639 10.2905249866078279 20.9412373711206001
  0.0000000000000000  0.0000000000000000 20.0924891752462287
  0.0000000000000000  2.9401499961736652 20.0924891752462287
  0.0000000000000000  5.8802999923473305 15.0000000000000000
  0.0000000000000000  8.8204499885209948 15.0000000000000000
