Au
 1.0000000000000000
    18.5951413008882511    0.0000000000000000    0.0000000000000000
   -14.8761130407106013    4.5548607882129595    0.0000000000000000
     0.0000000000000000    0.0000000000000000   39.3362301546180788
 Au 
  48
Cartesian
  0.0000000000000000  0.0000000000000000 15.0000000000000000
 13.0165989106217754  0.7591434647021607 16.6974963917487429
 10.2273277154885385  1.1387151970532410 17.5462445876231143
  7.4380565203552997  1.5182869294043213 18.3949927834974858
  4.6487853252220619  1.8978586617554021 19.2437409793718537
  9.2975706504441256  0.0000000000000020 20.0924891752462251
 15.8058701057550142  0.3795717323510827 20.9412373711205966
 13.0165989106217754  0.7591434647021628 21.7899855669949680
 10.2273277154885367  1.1387151970532434 22.6387337628693395
  7.4380565203552980  1.5182869294043246 23.4874819587437074
 15.8058701057550142  0.3795717323510803 15.8487481958743714
  4.6487853252220637  1.8978586617554047 24.3362301546180824
  8.3678135853997127  2.6570021264575603 15.8487481958743714
  5.5785423902664757  3.0365738588086404 16.6974963917487429
  2.7892711951332387  3.4161455911597205 17.5462445876231143
 -0.0000000000000009  3.7957173235108010 18.3949927834974858
 -2.7892711951332387  4.1752890558618816 19.2437409793718537
  1.8595141300888256  2.2774303941064820 20.0924891752462251
  8.3678135853997127  2.6570021264575625 20.9412373711205966
  5.5785423902664748  3.0365738588086426 21.7899855669949680
  2.7892711951332365  3.4161455911597232 22.6387337628693395
  1.8595141300888249  2.2774303941064797 15.0000000000000000
  9.2975706504441256  0.0000000000000000 15.0000000000000000
 -12.0868418455773625  4.1752890558618843 24.3362301546180824
 -9.2975706504441273  3.7957173235108046 23.4874819587437074
  6.5082994553108886  0.3795717323510803 15.8487481958743714
  3.7190282601776503  0.7591434647021607 16.6974963917487429
  0.9297570650444138  1.1387151970532410 17.5462445876231143
 -1.8595141300888258  1.5182869294043213 18.3949927834974858
 -4.6487853252220637  1.8978586617554021 19.2437409793718537
  0.0000000000000006  0.0000000000000020 20.0924891752462251
  6.5082994553108886  0.3795717323510827 20.9412373711205966
  3.7190282601776499  0.7591434647021628 21.7899855669949680
  0.9297570650444116  1.1387151970532434 22.6387337628693395
 -1.8595141300888272  1.5182869294043246 23.4874819587437074
 -4.6487853252220619  1.8978586617554047 24.3362301546180824
 -7.4380565203553006  2.2774303941064797 15.0000000000000000
 -0.9297570650444120  2.6570021264575603 15.8487481958743714
 -3.7190282601776503  3.0365738588086404 16.6974963917487429
 -6.5082994553108868  3.4161455911597205 17.5462445876231143
 -9.2975706504441256  3.7957173235108010 18.3949927834974858
 -12.0868418455773643  4.1752890558618816 19.2437409793718537
 -7.4380565203552997  2.2774303941064820 20.0924891752462251
 -0.9297570650444120  2.6570021264575625 20.9412373711205966
 -3.7190282601776508  3.0365738588086426 21.7899855669949680
 -6.5082994553108886  3.4161455911597232 22.6387337628693395
 -0.0000000000000022  3.7957173235108046 23.4874819587437074
 -2.7892711951332370  4.1752890558618843 24.3362301546180824
