Au
 1.0000000000000000
     1.8595141300888258    5.5785423902664801    0.0000000000000000
    -8.3678135853997127    2.7892711951332401   -0.0000000000000000
     0.0000000000000000    0.0000000000000000   39.0090000000000003
 Au 
  28
Cartesian
  0.0000000000000000  0.0000000000000000 15.0000000000000000
  0.9297570650444081  4.3388663035405948 22.6230000000000047
 -5.5785423902664757  4.9587043469035379 21.9299999999999962
 -2.7892711951332378  5.5785423902664801 21.2369999999999983
 -0.9297570650444135  3.4091092384961823 20.5439999999999969
 -6.5082994553108868  6.8182184769923655 19.8509999999999955
 -4.6487853252220610  4.6487853252220663 19.1580000000000013
 -1.8595141300888289  5.2686233685850103 18.4649999999999999
 -0.0000000000000004  3.0991902168147116 17.7720000000000020
 -5.5785423902664757  6.5082994553108939 17.0790000000000006
 -3.7190282601776476  4.3388663035405965 16.3859999999999992
 -0.9297570650444180  4.9587043469035379 15.6929999999999996
  0.9297570650444128  2.7892711951332401 15.0000000000000000
 -4.6487853252220610  3.0991902168147138 24.0089999999999968
 -2.7892711951332356  0.9297570650444129 23.3159999999999954
 -0.0000000000000047  1.5495951084073551 22.6230000000000047
 -6.5082994553108886  2.1694331517702983 21.9299999999999962
 -3.7190282601776508  2.7892711951332405 21.2369999999999983
 -1.8595141300888265  0.6198380433629418 20.5439999999999969
 -7.4380565203552997  4.0289472818591241 19.8509999999999955
 -5.5785423902664739  1.8595141300888260 19.1580000000000013
 -2.7892711951332418  2.4793521734517707 18.4649999999999999
 -0.9297570650444134  0.3099190216814714 17.7720000000000020
 -6.5082994553108886  3.7190282601776534 17.0790000000000006
 -4.6487853252220610  1.5495951084073563 16.3859999999999992
 -1.8595141300888307  2.1694331517702983 15.6929999999999996
 -1.8595141300888225  3.7190282601776534 23.3159999999999954
 -3.7190282601776481  5.8884614119479535 24.0089999999999968
