Au
 1.0000000000000000
     1.1532217079522518    2.7045446367748527    0.0000000000000000
   -12.6854387874747658    5.4090892735497054   -0.0000000000000000
     0.0000000000000000    0.0000000000000000   38.8648857860662815
 Au 
  21
Cartesian
  0.0000000000000000  0.0000000000000000 15.0000000000000000
 -3.4596651238567575  1.4752061655135462 22.9783972074596505
 -0.5766108539761183  1.8440077068919374 22.5351529181563315
 -11.5322170795225123  4.9173538850451797 22.0919086288530266
 -8.6491628096418864  5.2861554264235684 21.6486643395497076
 -6.9193302477135150  2.9504123310271071 21.2054200502463956
 -4.0362759778328732  3.3192138724054963 20.7621757609430801
 -2.3064434159045031  0.9834707770090332 20.3189314716397647
  0.5766108539761297  1.3522723183874221 19.8756871823364563
 -5.1894976857851347  3.8109492609100108 23.4216414967629660
 -10.3789953715702641  4.4256184965406620 19.4324428930331408
 -5.7661085397612570  2.4586769425225934 18.5459543144265133
 -2.8830542698806316  2.8274784839009803 18.1027100251231978
 -1.1532217079522522  0.4917353885045159 17.6594657358198823
 -10.9556062255463917  6.2696262034326109 17.2162214465165704
 -9.2257736636180088  3.9338831080361469 16.7729771572132549
 -6.3427193937373829  4.3026846494145374 16.3297328679099429
 -4.6128868318090062  1.9669415540180750 15.8864885786066274
 -1.7298325619283774  2.3357430953964631 15.4432442893033137
 -7.4959411016896347  4.7944200379190516 18.9891986037298253
 -8.0725519556657659  3.4421477195316204 23.8648857860662780
