Au
 1.0000000000000000
     1.2987410038656471    2.6377554482700183    0.0000000000000000
    21.4292265637831996  -10.5510217930800732    0.0000000000000000
     0.0000000000000000    0.0000000000000000   38.9567523411111409
 Au 
  36
Cartesian
  0.0000000000000000  0.0000000000000000 15.0000000000000000
 18.8317445560518912 -9.2721100605855202 20.1181441949206565
 17.2083183012198333 -6.8341845705177784 20.3740514046666874
 14.2861510425221301 -7.0340145287200517 20.6299586144127218
 12.6627247876900721 -4.5960890386523063 20.8858658241587527
  9.7405575289923760 -4.7959189968545823 21.1417730339047836
  8.1171312741603074 -2.3579935067868352 21.3976802436508180
 21.7539118147496069 -9.0722801023832460 19.8622369851746221
  5.1949640154625918 -2.5578234649891116 21.6535874533968489
  0.6493705019328282 -0.3197279331236378 22.1654018728889177
 20.4551708108839669 -8.4328242361359713 22.4213090826349521
 17.5330035521862548 -8.6326541943382438 22.6772162923809759
 15.9095772973541845 -6.1947287042704993 22.9331235021270139
 12.9874100386564741 -6.3945586624727762 23.1890307118730448
 11.3639837838244286 -3.9566331724050334 23.4449379216190792
  3.5715377606305219 -0.1198979749213651 21.9094946631428868
  1.9481115057984792 -0.9591837993709191 19.6063297754285877
  4.8702787644961756 -0.7593538411686418 19.3504225656825568
  6.4937050193282397 -3.1972793312363845 19.0945153559365224
 19.8058003089511381 -8.1130963030123269 15.2559072097460326
 16.8836330502534224 -8.3129262612146011 15.5118144194920653
 15.2602067954213734 -5.8750007711468584 15.7677216292380979
 12.3380395367236488 -6.0748307293491361 16.0236288389841306
 10.7146132818915980 -3.6369052392813885 16.2795360487301650
  7.7924460231938921 -3.8367351974836637 16.5354432584761959
  6.1690197683618395 -1.3988097074159185 16.7913504682222303
  3.2468525096641159 -1.5986396656181934 17.0472576779682612
  1.6234262548320624  0.8392858244495498 17.3031648877142956
 20.1304855599175525 -9.9115659268327967 17.5590720974603300
 18.5070593050854875 -7.4736404367650531 17.8149793072063609
 15.5848920463877860 -7.6734703949673273 18.0708865169523918
 13.9614657915557210 -5.2355449048995837 18.3267937266984262
 11.0392985328580142 -5.4353748631018570 18.5827009364444606
  9.4158722780259563 -2.9974493730341147 18.8386081461904880
  8.4418165251267112 -4.1564631306072997 23.7008451313651136
  6.8183902702946622 -1.7185376405395592 23.9567523411111409
