Au
 1.0000000000000000
    17.6408999770419896    0.0000000000000000    0.0000000000000000
     8.8204499885209948   15.2774675257386807    0.0000000000000000
     0.0000000000000000    0.0000000000000000    9.6024896771618575
 Au 
 151
Cartesian
  0.0000000000000000  0.0000000000000000  5.0000000000000000
  5.8802999923473305 11.8824747422411967  9.8012448385809279
  8.8204499885209948 11.8824747422411967  9.8012448385809279
 11.7605999846946609 11.8824747422411967  9.8012448385809279
 14.7007499808683235 11.8824747422411967  9.8012448385809279
 17.6408999770419896 11.8824747422411967  9.8012448385809279
 20.5810499732156558 11.8824747422411967  9.8012448385809279
  7.3503749904341618 14.4287193298643110  9.8012448385809279
 10.2905249866078261 14.4287193298643110  9.8012448385809279
 13.2306749827814905 14.4287193298643110  9.8012448385809279
 16.1708249789551566 14.4287193298643110  9.8012448385809279
 19.1109749751288192 14.4287193298643110  9.8012448385809279
 22.0511249713024853 14.4287193298643110  9.8012448385809279
  0.0000000000000000  0.0000000000000000 12.2018672578713936
  2.9401499961736648  0.0000000000000000 12.2018672578713936
  5.8802999923473296  0.0000000000000000 12.2018672578713936
 19.1109749751288227  9.3362301546180824  9.8012448385809279
  8.8204499885209948  0.0000000000000000 12.2018672578713936
 16.1708249789551566  9.3362301546180824  9.8012448385809279
 10.2905249866078279  9.3362301546180824  9.8012448385809279
 14.7007499808683253  1.6974963917487422  9.8012448385809279
  1.4700749980868322  4.2437409793718555  9.8012448385809279
  4.4102249942604974  4.2437409793718555  9.8012448385809279
  7.3503749904341618  4.2437409793718555  9.8012448385809279
 10.2905249866078261  4.2437409793718555  9.8012448385809279
 13.2306749827814905  4.2437409793718555  9.8012448385809279
 16.1708249789551566  4.2437409793718555  9.8012448385809279
  2.9401499961736648  6.7899855669949689  9.8012448385809279
  5.8802999923473296  6.7899855669949689  9.8012448385809279
  8.8204499885209948  6.7899855669949689  9.8012448385809279
 11.7605999846946592  6.7899855669949689  9.8012448385809279
 14.7007499808683235  6.7899855669949689  9.8012448385809279
 17.6408999770419896  6.7899855669949689  9.8012448385809279
  4.4102249942604974  9.3362301546180824  9.8012448385809279
  7.3503749904341618  9.3362301546180824  9.8012448385809279
 13.2306749827814905  9.3362301546180824  9.8012448385809279
 11.7605999846946592  1.6974963917487422  9.8012448385809279
 11.7605999846946592  0.0000000000000000 12.2018672578713936
  1.4700749980868324  2.5462445876231135 12.2018672578713936
 11.7605999846946592 10.1849783504924538 12.2018672578713936
 14.7007499808683235 10.1849783504924538 12.2018672578713936
 17.6408999770419896 10.1849783504924538 12.2018672578713936
 20.5810499732156522 10.1849783504924538 12.2018672578713936
  7.3503749904341618 12.7312229381155682 12.2018672578713936
 10.2905249866078261 12.7312229381155682 12.2018672578713936
 13.2306749827814905 12.7312229381155682 12.2018672578713936
 16.1708249789551566 12.7312229381155682 12.2018672578713936
 19.1109749751288192 12.7312229381155682 12.2018672578713936
 22.0511249713024853 12.7312229381155682 12.2018672578713936
 11.7605999846946609  8.4874819587437127 14.5999999999999979
 13.2306749827814922 11.0337265463668235 14.5999999999999979
 14.7007499808683235  8.4874819587437127 14.5999999999999979
 10.2905249866078261 11.0337265463668235 14.5999999999999979
 13.2306749827814922  5.9412373711205984 14.5999999999999979
  8.8204499885209948 10.1849783504924538 12.2018672578713936
 14.7007499808683235  0.0000000000000000 12.2018672578713936
  5.8802999923473296 10.1849783504924538 12.2018672578713936
 16.1708249789551566  7.6387337628693404 12.2018672578713936
  4.4102249942604974  2.5462445876231135 12.2018672578713936
  7.3503749904341618  2.5462445876231135 12.2018672578713936
 10.2905249866078279  2.5462445876231135 12.2018672578713936
 13.2306749827814922  2.5462445876231135 12.2018672578713936
 16.1708249789551566  2.5462445876231135 12.2018672578713936
  2.9401499961736648  5.0924891752462269 12.2018672578713936
  5.8802999923473296  5.0924891752462269 12.2018672578713936
  8.8204499885209948  5.0924891752462269 12.2018672578713936
 11.7605999846946592  5.0924891752462269 12.2018672578713936
 14.7007499808683235  5.0924891752462269 12.2018672578713936
 17.6408999770419896  5.0924891752462269 12.2018672578713936
  4.4102249942604974  7.6387337628693404 12.2018672578713936
  7.3503749904341618  7.6387337628693404 12.2018672578713936
 10.2905249866078279  7.6387337628693404 12.2018672578713936
 13.2306749827814922  7.6387337628693404 12.2018672578713936
 19.1109749751288192  7.6387337628693404 12.2018672578713936
 10.2905249866078279  5.9412373711205984 14.5999999999999979
  8.8204499885209948  1.6974963917487422  9.8012448385809279
  2.9401499961736648  1.6974963917487422  9.8012448385809279
 10.2905249866078279  7.6387337628693404  5.0000000000000000
 13.2306749827814922  7.6387337628693404  5.0000000000000000
 16.1708249789551566  7.6387337628693404  5.0000000000000000
 19.1109749751288192  7.6387337628693404  5.0000000000000000
  5.8802999923473296 10.1849783504924538  5.0000000000000000
  8.8204499885209948 10.1849783504924538  5.0000000000000000
 11.7605999846946592 10.1849783504924538  5.0000000000000000
 14.7007499808683235 10.1849783504924538  5.0000000000000000
 17.6408999770419896 10.1849783504924538  5.0000000000000000
 20.5810499732156522 10.1849783504924538  5.0000000000000000
  7.3503749904341618 12.7312229381155682  5.0000000000000000
 10.2905249866078261 12.7312229381155682  5.0000000000000000
 13.2306749827814905 12.7312229381155682  5.0000000000000000
 16.1708249789551566 12.7312229381155682  5.0000000000000000
 19.1109749751288192 12.7312229381155682  5.0000000000000000
  7.3503749904341618  7.6387337628693404  5.0000000000000000
 22.0511249713024853 12.7312229381155682  5.0000000000000000
  4.4102249942604974  7.6387337628693404  5.0000000000000000
 14.7007499808683235  5.0924891752462269  5.0000000000000000
  2.9401499961736648  0.0000000000000000  5.0000000000000000
  5.8802999923473296  0.0000000000000000  5.0000000000000000
  8.8204499885209948  0.0000000000000000  5.0000000000000000
 11.7605999846946592  0.0000000000000000  5.0000000000000000
 14.7007499808683235  0.0000000000000000  5.0000000000000000
  1.4700749980868324  2.5462445876231135  5.0000000000000000
  4.4102249942604974  2.5462445876231135  5.0000000000000000
  7.3503749904341618  2.5462445876231135  5.0000000000000000
 10.2905249866078279  2.5462445876231135  5.0000000000000000
 13.2306749827814922  2.5462445876231135  5.0000000000000000
 16.1708249789551566  2.5462445876231135  5.0000000000000000
  2.9401499961736648  5.0924891752462269  5.0000000000000000
  5.8802999923473296  5.0924891752462269  5.0000000000000000
  8.8204499885209948  5.0924891752462269  5.0000000000000000
 11.7605999846946592  5.0924891752462269  5.0000000000000000
 17.6408999770419896  5.0924891752462269  5.0000000000000000
  5.8802999923473296  1.6974963917487422  9.8012448385809279
  1.4700749980868324  0.8487481958743711  7.4006224192904639
  7.3503749904341626  0.8487481958743711  7.4006224192904639
 17.6408999770419896  8.4874819587437127  7.4006224192904639
 20.5810499732156522  8.4874819587437127  7.4006224192904639
  7.3503749904341618 11.0337265463668235  7.4006224192904639
 10.2905249866078261 11.0337265463668235  7.4006224192904639
 13.2306749827814922 11.0337265463668235  7.4006224192904639
 16.1708249789551566 11.0337265463668235  7.4006224192904639
 19.1109749751288192 11.0337265463668235  7.4006224192904639
 22.0511249713024853 11.0337265463668235  7.4006224192904639
  8.8204499885209948 13.5799711339899378  7.4006224192904639
 11.7605999846946592 13.5799711339899378  7.4006224192904639
 14.7007499808683235 13.5799711339899378  7.4006224192904639
 17.6408999770419896 13.5799711339899378  7.4006224192904639
 20.5810499732156522 13.5799711339899378  7.4006224192904639
 23.5211999693893183 13.5799711339899378  7.4006224192904639
  0.0000000000000000  1.6974963917487422  9.8012448385809279
 14.7007499808683235  8.4874819587437127  7.4006224192904639
  4.4102249942604974  0.8487481958743711  7.4006224192904639
 11.7605999846946609  8.4874819587437127  7.4006224192904639
  5.8802999923473296  8.4874819587437127  7.4006224192904639
 10.2905249866078279  0.8487481958743711  7.4006224192904639
 13.2306749827814922  0.8487481958743711  7.4006224192904639
 16.1708249789551566  0.8487481958743711  7.4006224192904639
  2.9401499961736648  3.3949927834974845  7.4006224192904639
  5.8802999923473296  3.3949927834974845  7.4006224192904639
  8.8204499885209948  3.3949927834974845  7.4006224192904639
 11.7605999846946592  3.3949927834974845  7.4006224192904639
 14.7007499808683235  3.3949927834974845  7.4006224192904639
 17.6408999770419896  3.3949927834974845  7.4006224192904639
  4.4102249942604974  5.9412373711205984  7.4006224192904639
  7.3503749904341618  5.9412373711205984  7.4006224192904639
 10.2905249866078279  5.9412373711205984  7.4006224192904639
 13.2306749827814922  5.9412373711205984  7.4006224192904639
 16.1708249789551566  5.9412373711205984  7.4006224192904639
 19.1109749751288192  5.9412373711205984  7.4006224192904639
  8.8204499885209948  8.4874819587437127  7.4006224192904639
  8.8204499885209948  8.4874819587437127 14.5999999999999979
