Au
 1.0000000000000000
    23.5211999693893219    0.0000000000000000    0.0000000000000000
     4.4102249942604974    7.6387337628693404    0.0000000000000000
     0.0000000000000000    0.0000000000000000   44.6030000000000015
 Au 
 109
Cartesian
  0.0000000000000000  0.0000000000000000  5.0000000000000000
 17.6408999770419896  0.0000000000000000 12.2018672578713936
 14.7007499808683271  0.0000000000000000 12.2018672578713936
 11.7605999846946609  0.0000000000000000 12.2018672578713936
  8.8204499885209948  0.0000000000000000 12.2018672578713936
  5.8802999923473305  0.0000000000000000 12.2018672578713936
  2.9401499961736652  0.0000000000000000 12.2018672578713936
  0.0000000000000000  0.0000000000000000 12.2018672578713936
 23.5211999693893219  6.7899855669949689  9.8012448385809279
 20.5810499732156558  6.7899855669949689  9.8012448385809279
 17.6408999770419932  6.7899855669949689  9.8012448385809279
 14.7007499808683253  6.7899855669949689  9.8012448385809279
 11.7605999846946592  6.7899855669949689  9.8012448385809279
  8.8204499885209948  6.7899855669949689  9.8012448385809279
  5.8802999923473305  6.7899855669949689  9.8012448385809279
 26.4613499655629845  6.7899855669949689  9.8012448385809279
 22.0511249713024888  4.2437409793718555  9.8012448385809279
 19.1109749751288227  4.2437409793718555  9.8012448385809279
 16.1708249789551601  4.2437409793718555  9.8012448385809279
 13.2306749827814940  4.2437409793718555  9.8012448385809279
 10.2905249866078279  4.2437409793718555  9.8012448385809279
  7.3503749904341626  4.2437409793718555  9.8012448385809279
  4.4102249942604974  4.2437409793718555  9.8012448385809279
 24.9912749674761514  4.2437409793718555  9.8012448385809279
 20.5810499732156558  0.0000000000000000 12.2018672578713936
  1.4700749980868324  2.5462445876231135 12.2018672578713936
  4.4102249942604974  2.5462445876231135 12.2018672578713936
  7.3503749904341626  2.5462445876231135 12.2018672578713936
 10.2905249866078279  5.9412373711205984 14.6029999999999980
  7.3503749904341626  5.9412373711205984 14.6029999999999980
  4.4102249942604974  5.9412373711205984 14.6029999999999980
 11.7605999846946609  3.3949927834974845 14.6029999999999980
  8.8204499885209966  3.3949927834974845 14.6029999999999980
  5.8802999923473296  3.3949927834974845 14.6029999999999980
  2.9401499961736648  3.3949927834974845 14.6029999999999980
 10.2905249866078297  0.8487481958743711 14.6029999999999980
  7.3503749904341635  0.8487481958743711 14.6029999999999980
  4.4102249942604974  0.8487481958743711 14.6029999999999980
  1.4700749980868324  0.8487481958743711 14.6029999999999980
 20.5810499732156593  1.6974963917487422  9.8012448385809279
 23.5211999693893219  5.0924891752462269 12.2018672578713936
 17.6408999770419932  5.0924891752462269 12.2018672578713936
 14.7007499808683253  5.0924891752462269 12.2018672578713936
 11.7605999846946592  5.0924891752462269 12.2018672578713936
  8.8204499885209948  5.0924891752462269 12.2018672578713936
  5.8802999923473305  5.0924891752462269 12.2018672578713936
  2.9401499961736648  5.0924891752462269 12.2018672578713936
 22.0511249713024888  2.5462445876231135 12.2018672578713936
 19.1109749751288227  2.5462445876231135 12.2018672578713936
 16.1708249789551601  2.5462445876231135 12.2018672578713936
 13.2306749827814940  2.5462445876231135 12.2018672578713936
 10.2905249866078279  2.5462445876231135 12.2018672578713936
 20.5810499732156558  5.0924891752462269 12.2018672578713936
 13.2306749827814940  5.9412373711205984 14.6029999999999980
 17.6408999770419932  1.6974963917487422  9.8012448385809279
 11.7605999846946609  1.6974963917487422  9.8012448385809279
 23.5211999693893219  5.0924891752462269  5.0000000000000000
 20.5810499732156558  5.0924891752462269  5.0000000000000000
 17.6408999770419932  5.0924891752462269  5.0000000000000000
 14.7007499808683253  5.0924891752462269  5.0000000000000000
 11.7605999846946592  5.0924891752462269  5.0000000000000000
  8.8204499885209948  5.0924891752462269  5.0000000000000000
  5.8802999923473305  5.0924891752462269  5.0000000000000000
  2.9401499961736648  5.0924891752462269  5.0000000000000000
 22.0511249713024888  2.5462445876231135  5.0000000000000000
 19.1109749751288227  2.5462445876231135  5.0000000000000000
 16.1708249789551601  2.5462445876231135  5.0000000000000000
 13.2306749827814940  2.5462445876231135  5.0000000000000000
 10.2905249866078279  2.5462445876231135  5.0000000000000000
  7.3503749904341626  2.5462445876231135  5.0000000000000000
  4.4102249942604974  2.5462445876231135  5.0000000000000000
  1.4700749980868324  2.5462445876231135  5.0000000000000000
 20.5810499732156558  0.0000000000000000  5.0000000000000000
 17.6408999770419896  0.0000000000000000  5.0000000000000000
 14.7007499808683271  0.0000000000000000  5.0000000000000000
 11.7605999846946609  0.0000000000000000  5.0000000000000000
  8.8204499885209948  0.0000000000000000  5.0000000000000000
  5.8802999923473305  0.0000000000000000  5.0000000000000000
  2.9401499961736652  0.0000000000000000  5.0000000000000000
  1.4700749980868324  0.8487481958743711  7.4006224192904630
  4.4102249942604974  0.8487481958743711  7.4006224192904630
  7.3503749904341635  0.8487481958743711  7.4006224192904630
 10.2905249866078297  0.8487481958743711  7.4006224192904630
  8.8204499885209948  1.6974963917487422  9.8012448385809279
  5.8802999923473305  1.6974963917487422  9.8012448385809279
  2.9401499961736652  1.6974963917487422  9.8012448385809279
 23.5211999693893219  1.6974963917487422  9.8012448385809279
 24.9912749674761550  5.9412373711205984  7.4006224192904630
 22.0511249713024888  5.9412373711205984  7.4006224192904630
 19.1109749751288227  5.9412373711205984  7.4006224192904630
 16.1708249789551601  5.9412373711205984  7.4006224192904630
 13.2306749827814940  5.9412373711205984  7.4006224192904630
 10.2905249866078279  5.9412373711205984  7.4006224192904630
  7.3503749904341626  5.9412373711205984  7.4006224192904630
 14.7007499808683271  1.6974963917487422  9.8012448385809279
  4.4102249942604974  5.9412373711205984  7.4006224192904630
 20.5810499732156558  3.3949927834974845  7.4006224192904630
 17.6408999770419896  3.3949927834974845  7.4006224192904630
 14.7007499808683253  3.3949927834974845  7.4006224192904630
 11.7605999846946609  3.3949927834974845  7.4006224192904630
  8.8204499885209966  3.3949927834974845  7.4006224192904630
  5.8802999923473296  3.3949927834974845  7.4006224192904630
  2.9401499961736648  3.3949927834974845  7.4006224192904630
 22.0511249713024888  0.8487481958743711  7.4006224192904630
 19.1109749751288227  0.8487481958743711  7.4006224192904630
 16.1708249789551566  0.8487481958743711  7.4006224192904630
 13.2306749827814940  0.8487481958743711  7.4006224192904630
 23.5211999693893219  3.3949927834974845  7.4006224192904630
 22.0511249713024888  0.8487481958743711 14.6029999999999980
