Au
 1.0000000000000000
    23.5211999693893219    0.0000000000000000    0.0000000000000000
    11.7605999846946609   20.3699567009849076    0.0000000000000000
     0.0000000000000000    0.0000000000000000    9.6024896771618575
 Au 
 249
Cartesian
  0.0000000000000000  0.0000000000000000  5.0000000000000000
 19.1109749751288263  9.3362301546180824  9.8012448385809279
 22.0511249713024888  9.3362301546180824  9.8012448385809279
 24.9912749674761550  9.3362301546180824  9.8012448385809279
  5.8802999923473314 11.8824747422411967  9.8012448385809279
  8.8204499885209966 11.8824747422411967  9.8012448385809279
 11.7605999846946609 11.8824747422411967  9.8012448385809279
 14.7007499808683271 11.8824747422411967  9.8012448385809279
 17.6408999770419932 11.8824747422411967  9.8012448385809279
 20.5810499732156593 11.8824747422411967  9.8012448385809279
 23.5211999693893219 11.8824747422411967  9.8012448385809279
 26.4613499655629880 11.8824747422411967  9.8012448385809279
  7.3503749904341635 14.4287193298643110  9.8012448385809279
 10.2905249866078279 14.4287193298643110  9.8012448385809279
 13.2306749827814940 14.4287193298643110  9.8012448385809279
 16.1708249789551601 14.4287193298643110  9.8012448385809279
 19.1109749751288263 14.4287193298643110  9.8012448385809279
 22.0511249713024924 14.4287193298643110  9.8012448385809279
 24.9912749674761550 14.4287193298643110  9.8012448385809279
 27.9314249636498211 14.4287193298643110  9.8012448385809279
  8.8204499885209966 16.9749639174874254  9.8012448385809279
 11.7605999846946609 16.9749639174874254  9.8012448385809279
 14.7007499808683271 16.9749639174874254  9.8012448385809279
 17.6408999770419896 16.9749639174874254  9.8012448385809279
 20.5810499732156558 16.9749639174874254  9.8012448385809279
 23.5211999693893219 16.9749639174874254  9.8012448385809279
 26.4613499655629880 16.9749639174874254  9.8012448385809279
 29.4014999617366541 16.9749639174874254  9.8012448385809279
 16.1708249789551601  9.3362301546180824  9.8012448385809279
 10.2905249866078297 19.5212085051105362  9.8012448385809279
 13.2306749827814940  9.3362301546180824  9.8012448385809279
  7.3503749904341635  9.3362301546180824  9.8012448385809279
 29.4014999617366541 18.6724603092361647  7.4006224192904639
 32.3416499579103203 18.6724603092361647  7.4006224192904639
  0.0000000000000000  1.6974963917487422  9.8012448385809279
  2.9401499961736652  1.6974963917487422  9.8012448385809279
  5.8802999923473305  1.6974963917487422  9.8012448385809279
  8.8204499885209948  1.6974963917487422  9.8012448385809279
 11.7605999846946609  1.6974963917487422  9.8012448385809279
 14.7007499808683271  1.6974963917487422  9.8012448385809279
 17.6408999770419932  1.6974963917487422  9.8012448385809279
 20.5810499732156593  1.6974963917487422  9.8012448385809279
  1.4700749980868324  4.2437409793718555  9.8012448385809279
  4.4102249942604974  4.2437409793718555  9.8012448385809279
  7.3503749904341635  4.2437409793718555  9.8012448385809279
 10.2905249866078279  4.2437409793718555  9.8012448385809279
 13.2306749827814940  4.2437409793718555  9.8012448385809279
 16.1708249789551601  4.2437409793718555  9.8012448385809279
 19.1109749751288227  4.2437409793718555  9.8012448385809279
 22.0511249713024888  4.2437409793718555  9.8012448385809279
  2.9401499961736652  6.7899855669949689  9.8012448385809279
  5.8802999923473305  6.7899855669949689  9.8012448385809279
  8.8204499885209948  6.7899855669949689  9.8012448385809279
 11.7605999846946609  6.7899855669949689  9.8012448385809279
 14.7007499808683271  6.7899855669949689  9.8012448385809279
 17.6408999770419932  6.7899855669949689  9.8012448385809279
 20.5810499732156558  6.7899855669949689  9.8012448385809279
 23.5211999693893219  6.7899855669949689  9.8012448385809279
  4.4102249942604983  9.3362301546180824  9.8012448385809279
 10.2905249866078279  9.3362301546180824  9.8012448385809279
 13.2306749827814940 19.5212085051105362  9.8012448385809279
 16.1708249789551601 19.5212085051105362  9.8012448385809279
 19.1109749751288263 19.5212085051105362  9.8012448385809279
 22.0511249713024853  7.6387337628693404 12.2018672578713936
 24.9912749674761514  7.6387337628693404 12.2018672578713936
  5.8802999923473305 10.1849783504924538 12.2018672578713936
  8.8204499885209948 10.1849783504924538 12.2018672578713936
 11.7605999846946609 10.1849783504924538 12.2018672578713936
 23.5211999693893219 10.1849783504924538 12.2018672578713936
 26.4613499655629880 10.1849783504924538 12.2018672578713936
  7.3503749904341635 12.7312229381155682 12.2018672578713936
 10.2905249866078279 12.7312229381155682 12.2018672578713936
 13.2306749827814940 12.7312229381155682 12.2018672578713936
 22.0511249713024924 12.7312229381155682 12.2018672578713936
 24.9912749674761514 12.7312229381155682 12.2018672578713936
 27.9314249636498175 12.7312229381155682 12.2018672578713936
  8.8204499885209948 15.2774675257386807 12.2018672578713936
 11.7605999846946609 15.2774675257386807 12.2018672578713936
 14.7007499808683253 15.2774675257386807 12.2018672578713936
 17.6408999770419896 15.2774675257386807 12.2018672578713936
 20.5810499732156558 15.2774675257386807 12.2018672578713936
 23.5211999693893219 15.2774675257386807 12.2018672578713936
 26.4613499655629845 15.2774675257386807 12.2018672578713936
 29.4014999617366506 15.2774675257386807 12.2018672578713936
 10.2905249866078279 17.8237121133617933 12.2018672578713936
 13.2306749827814940 17.8237121133617933 12.2018672578713936
 16.1708249789551601 17.8237121133617933 12.2018672578713936
 19.1109749751288227 17.8237121133617933 12.2018672578713936
 22.0511249713024888 17.8237121133617933 12.2018672578713936
 24.9912749674761550 17.8237121133617933 12.2018672578713936
 13.2306749827814922  7.6387337628693404 12.2018672578713936
 10.2905249866078279  7.6387337628693404 12.2018672578713936
  7.3503749904341626  7.6387337628693404 12.2018672578713936
  4.4102249942604974  7.6387337628693404 12.2018672578713936
 22.0511249713024924 19.5212085051105362  9.8012448385809279
 24.9912749674761585 19.5212085051105362  9.8012448385809279
 27.9314249636498211 19.5212085051105362  9.8012448385809279
 30.8715749598234872 19.5212085051105362  9.8012448385809279
  0.0000000000000000  0.0000000000000000 12.2018672578713936
  2.9401499961736652  0.0000000000000000 12.2018672578713936
  5.8802999923473305  0.0000000000000000 12.2018672578713936
  8.8204499885209948  0.0000000000000000 12.2018672578713936
 11.7605999846946609  0.0000000000000000 12.2018672578713936
 14.7007499808683271  0.0000000000000000 12.2018672578713936
 17.6408999770419896  0.0000000000000000 12.2018672578713936
 20.5810499732156558  0.0000000000000000 12.2018672578713936
  1.4700749980868326  2.5462445876231135 12.2018672578713936
 26.4613499655629880 18.6724603092361647  7.4006224192904639
  4.4102249942604974  2.5462445876231135 12.2018672578713936
 10.2905249866078279  2.5462445876231135 12.2018672578713936
 13.2306749827814940  2.5462445876231135 12.2018672578713936
 16.1708249789551601  2.5462445876231135 12.2018672578713936
 19.1109749751288227  2.5462445876231135 12.2018672578713936
 22.0511249713024888  2.5462445876231135 12.2018672578713936
  2.9401499961736652  5.0924891752462269 12.2018672578713936
  5.8802999923473305  5.0924891752462269 12.2018672578713936
  8.8204499885209948  5.0924891752462269 12.2018672578713936
 11.7605999846946609  5.0924891752462269 12.2018672578713936
 14.7007499808683271  5.0924891752462269 12.2018672578713936
 17.6408999770419932  5.0924891752462269 12.2018672578713936
 20.5810499732156558  5.0924891752462269 12.2018672578713936
 23.5211999693893219  5.0924891752462269 12.2018672578713936
  7.3503749904341635  2.5462445876231135 12.2018672578713936
 27.9314249636498175 17.8237121133617933 12.2018672578713936
 23.5211999693893219 18.6724603092361647  7.4006224192904639
 17.6408999770419932 18.6724603092361647  7.4006224192904639
  5.8802999923473305 10.1849783504924538  5.0000000000000000
  8.8204499885209948 10.1849783504924538  5.0000000000000000
 11.7605999846946609 10.1849783504924538  5.0000000000000000
 14.7007499808683253 10.1849783504924538  5.0000000000000000
 17.6408999770419896 10.1849783504924538  5.0000000000000000
 20.5810499732156558 10.1849783504924538  5.0000000000000000
 23.5211999693893219 10.1849783504924538  5.0000000000000000
 26.4613499655629880 10.1849783504924538  5.0000000000000000
  7.3503749904341635 12.7312229381155682  5.0000000000000000
 10.2905249866078279 12.7312229381155682  5.0000000000000000
 13.2306749827814940 12.7312229381155682  5.0000000000000000
 16.1708249789551601 12.7312229381155682  5.0000000000000000
 19.1109749751288263 12.7312229381155682  5.0000000000000000
 22.0511249713024924 12.7312229381155682  5.0000000000000000
 24.9912749674761514 12.7312229381155682  5.0000000000000000
 27.9314249636498175 12.7312229381155682  5.0000000000000000
  8.8204499885209948 15.2774675257386807  5.0000000000000000
 11.7605999846946609 15.2774675257386807  5.0000000000000000
 14.7007499808683253 15.2774675257386807  5.0000000000000000
 17.6408999770419896 15.2774675257386807  5.0000000000000000
 20.5810499732156558 15.2774675257386807  5.0000000000000000
 23.5211999693893219 15.2774675257386807  5.0000000000000000
 26.4613499655629845 15.2774675257386807  5.0000000000000000
 29.4014999617366506 15.2774675257386807  5.0000000000000000
 10.2905249866078279 17.8237121133617933  5.0000000000000000
 13.2306749827814940 17.8237121133617933  5.0000000000000000
 16.1708249789551601 17.8237121133617933  5.0000000000000000
 24.9912749674761514  7.6387337628693404  5.0000000000000000
 19.1109749751288227 17.8237121133617933  5.0000000000000000
 22.0511249713024853  7.6387337628693404  5.0000000000000000
 16.1708249789551601  7.6387337628693404  5.0000000000000000
  2.9401499961736652  0.0000000000000000  5.0000000000000000
  5.8802999923473305  0.0000000000000000  5.0000000000000000
  8.8204499885209948  0.0000000000000000  5.0000000000000000
 11.7605999846946609  0.0000000000000000  5.0000000000000000
 14.7007499808683271  0.0000000000000000  5.0000000000000000
 17.6408999770419896  0.0000000000000000  5.0000000000000000
 20.5810499732156558  0.0000000000000000  5.0000000000000000
  1.4700749980868326  2.5462445876231135  5.0000000000000000
  4.4102249942604974  2.5462445876231135  5.0000000000000000
  7.3503749904341635  2.5462445876231135  5.0000000000000000
 10.2905249866078279  2.5462445876231135  5.0000000000000000
 13.2306749827814940  2.5462445876231135  5.0000000000000000
 16.1708249789551601  2.5462445876231135  5.0000000000000000
 19.1109749751288227  2.5462445876231135  5.0000000000000000
 22.0511249713024888  2.5462445876231135  5.0000000000000000
  2.9401499961736652  5.0924891752462269  5.0000000000000000
  5.8802999923473305  5.0924891752462269  5.0000000000000000
  8.8204499885209948  5.0924891752462269  5.0000000000000000
 11.7605999846946609  5.0924891752462269  5.0000000000000000
 14.7007499808683271  5.0924891752462269  5.0000000000000000
 17.6408999770419932  5.0924891752462269  5.0000000000000000
 20.5810499732156558  5.0924891752462269  5.0000000000000000
 23.5211999693893219  5.0924891752462269  5.0000000000000000
  4.4102249942604974  7.6387337628693404  5.0000000000000000
  7.3503749904341626  7.6387337628693404  5.0000000000000000
 10.2905249866078279  7.6387337628693404  5.0000000000000000
 13.2306749827814922  7.6387337628693404  5.0000000000000000
 19.1109749751288263  7.6387337628693404  5.0000000000000000
 22.0511249713024888 17.8237121133617933  5.0000000000000000
 24.9912749674761550 17.8237121133617933  5.0000000000000000
 27.9314249636498175 17.8237121133617933  5.0000000000000000
 26.4613499655629880  8.4874819587437127  7.4006224192904639
  7.3503749904341626 11.0337265463668235  7.4006224192904639
 10.2905249866078279 11.0337265463668235  7.4006224192904639
 13.2306749827814940 11.0337265463668235  7.4006224192904639
 16.1708249789551601 11.0337265463668235  7.4006224192904639
 19.1109749751288227 11.0337265463668235  7.4006224192904639
 22.0511249713024888 11.0337265463668235  7.4006224192904639
 24.9912749674761550 11.0337265463668235  7.4006224192904639
 27.9314249636498211 11.0337265463668235  7.4006224192904639
  8.8204499885209948 13.5799711339899378  7.4006224192904639
 11.7605999846946609 13.5799711339899378  7.4006224192904639
 14.7007499808683271 13.5799711339899378  7.4006224192904639
 17.6408999770419896 13.5799711339899378  7.4006224192904639
 20.5810499732156558 13.5799711339899378  7.4006224192904639
 23.5211999693893219 13.5799711339899378  7.4006224192904639
 26.4613499655629880 13.5799711339899378  7.4006224192904639
 29.4014999617366541 13.5799711339899378  7.4006224192904639
 10.2905249866078279 16.1262157216130504  7.4006224192904639
 13.2306749827814940 16.1262157216130504  7.4006224192904639
 16.1708249789551601 16.1262157216130504  7.4006224192904639
 19.1109749751288263 16.1262157216130504  7.4006224192904639
 22.0511249713024888 16.1262157216130504  7.4006224192904639
 24.9912749674761514 16.1262157216130504  7.4006224192904639
 27.9314249636498175 16.1262157216130504  7.4006224192904639
 30.8715749598234837 16.1262157216130504  7.4006224192904639
 11.7605999846946609 18.6724603092361647  7.4006224192904639
 14.7007499808683271 18.6724603092361647  7.4006224192904639
 23.5211999693893219  8.4874819587437127  7.4006224192904639
 20.5810499732156558  8.4874819587437127  7.4006224192904639
 17.6408999770419896  8.4874819587437127  7.4006224192904639
 14.7007499808683271  8.4874819587437127  7.4006224192904639
 30.8715749598234837 17.8237121133617933  5.0000000000000000
  1.4700749980868326  0.8487481958743711  7.4006224192904639
  4.4102249942604974  0.8487481958743711  7.4006224192904639
  7.3503749904341635  0.8487481958743711  7.4006224192904639
 10.2905249866078297  0.8487481958743711  7.4006224192904639
 13.2306749827814940  0.8487481958743711  7.4006224192904639
 16.1708249789551566  0.8487481958743711  7.4006224192904639
 19.1109749751288227  0.8487481958743711  7.4006224192904639
 22.0511249713024888  0.8487481958743711  7.4006224192904639
  2.9401499961736652  3.3949927834974845  7.4006224192904639
  5.8802999923473305  3.3949927834974845  7.4006224192904639
  8.8204499885209966  3.3949927834974845  7.4006224192904639
 11.7605999846946609  3.3949927834974845  7.4006224192904639
 20.5810499732156558 18.6724603092361647  7.4006224192904639
 14.7007499808683253  3.3949927834974845  7.4006224192904639
 20.5810499732156558  3.3949927834974845  7.4006224192904639
 23.5211999693893219  3.3949927834974845  7.4006224192904639
  4.4102249942604983  5.9412373711205984  7.4006224192904639
  7.3503749904341635  5.9412373711205984  7.4006224192904639
 10.2905249866078297  5.9412373711205984  7.4006224192904639
 13.2306749827814940  5.9412373711205984  7.4006224192904639
 16.1708249789551601  5.9412373711205984  7.4006224192904639
 19.1109749751288227  5.9412373711205984  7.4006224192904639
 22.0511249713024888  5.9412373711205984  7.4006224192904639
 24.9912749674761550  5.9412373711205984  7.4006224192904639
  5.8802999923473305  8.4874819587437127  7.4006224192904639
  8.8204499885209948  8.4874819587437127  7.4006224192904639
 11.7605999846946609  8.4874819587437127  7.4006224192904639
 17.6408999770419896  3.3949927834974845  7.4006224192904639
 30.8715749598234837 17.8237121133617933 12.2018672578713936
