Au
 1.0000000000000000
    11.7605999846946609    0.0000000000000000    0.0000000000000000
     5.8802999923473305   10.1849783504924538    0.0000000000000000
     0.0000000000000000    0.0000000000000000    9.6024896771618575
 Au 
  64
Cartesian
  0.0000000000000000  0.0000000000000000  5.0000000000000000
  5.8802999923473305  0.0000000000000000  5.0000000000000000
  8.8204499885209948  0.0000000000000000  5.0000000000000000
  1.4700749980868326  2.5462445876231135  5.0000000000000000
  4.4102249942604974  2.5462445876231135  5.0000000000000000
  7.3503749904341635  2.5462445876231135  5.0000000000000000
 10.2905249866078279  2.5462445876231135  5.0000000000000000
  2.9401499961736652  5.0924891752462269  5.0000000000000000
  5.8802999923473305  5.0924891752462269  5.0000000000000000
  8.8204499885209948  5.0924891752462269  5.0000000000000000
 11.7605999846946609  5.0924891752462269  5.0000000000000000
  4.4102249942604974  7.6387337628693404  5.0000000000000000
  7.3503749904341626  7.6387337628693404  5.0000000000000000
 10.2905249866078279  7.6387337628693404  5.0000000000000000
  2.9401499961736652  0.0000000000000000  5.0000000000000000
 13.2306749827814922  7.6387337628693404  5.0000000000000000
  4.4102249942604974  0.8487481958743711  7.4006224192904639
  7.3503749904341635  0.8487481958743711  7.4006224192904639
 10.2905249866078297  0.8487481958743711  7.4006224192904639
  2.9401499961736652  3.3949927834974845  7.4006224192904639
  5.8802999923473305  3.3949927834974845  7.4006224192904639
  8.8204499885209966  3.3949927834974845  7.4006224192904639
 11.7605999846946609  3.3949927834974845  7.4006224192904639
  4.4102249942604983  5.9412373711205984  7.4006224192904639
  7.3503749904341635  5.9412373711205984  7.4006224192904639
 10.2905249866078297  5.9412373711205984  7.4006224192904639
 13.2306749827814940  5.9412373711205984  7.4006224192904639
  5.8802999923473305  8.4874819587437127  7.4006224192904639
  8.8204499885209948  8.4874819587437127  7.4006224192904639
  1.4700749980868326  0.8487481958743711  7.4006224192904639
 11.7605999846946609  8.4874819587437127  7.4006224192904639
 14.7007499808683271  8.4874819587437127  7.4006224192904639
 11.7605999846946609  1.6974963917487422  9.8012448385809279
  5.8802999923473305  1.6974963917487422  9.8012448385809279
  8.8204499885209948  1.6974963917487422  9.8012448385809279
 13.2306749827814940  4.2437409793718555  9.8012448385809279
  4.4102249942604974  4.2437409793718555  9.8012448385809279
  7.3503749904341635  4.2437409793718555  9.8012448385809279
 10.2905249866078279  4.2437409793718555  9.8012448385809279
 14.7007499808683271  6.7899855669949689  9.8012448385809279
  5.8802999923473305  6.7899855669949689  9.8012448385809279
  8.8204499885209948  6.7899855669949689  9.8012448385809279
 11.7605999846946609  6.7899855669949689  9.8012448385809279
 16.1708249789551601  9.3362301546180824  9.8012448385809279
  7.3503749904341635  9.3362301546180824  9.8012448385809279
 10.2905249866078279  9.3362301546180824  9.8012448385809279
  2.9401499961736652  1.6974963917487422  9.8012448385809279
 13.2306749827814940  9.3362301546180824  9.8012448385809279
  8.8204499885209948  8.4874819587437127 12.2018672578713936
 11.7605999846946592  8.4874819587437127 12.2018672578713936
 14.7007499808683235  8.4874819587437127 12.2018672578713936
  1.4700749980868315  0.8487481958743726 12.2018672578713936
  4.4102249942604965  0.8487481958743726 12.2018672578713936
  7.3503749904341626  0.8487481958743726 12.2018672578713936
 10.2905249866078261  0.8487481958743726 12.2018672578713936
  2.9401499961736643  3.3949927834974862 12.2018672578713936
  5.8802999923473296  3.3949927834974862 12.2018672578713936
  8.8204499885209930  3.3949927834974862 12.2018672578713936
 11.7605999846946592  3.3949927834974862 12.2018672578713936
  4.4102249942604965  5.9412373711205992 12.2018672578713936
  7.3503749904341618  5.9412373711205992 12.2018672578713936
  5.8802999923473287  8.4874819587437127 12.2018672578713936
 10.2905249866078243  5.9412373711205992 12.2018672578713936
 13.2306749827814905  5.9412373711205992 12.2018672578713936
