Au
 1.0000000000000000
    47.0423999387786438    0.0000000000000000    0.0000000000000000
     1.4700749980868326    2.5462445876231135    0.0000000000000000
     0.0000000000000000    0.0000000000000000   44.6030000000000015
 Au 
  65
Cartesian
  0.0000000000000000  0.0000000000000000  5.0000000000000000
 47.0423999387786367  1.6974963917487422  9.8012448385809279
 45.5723249406918143  0.8487481958743711  7.4006224192904630
 42.6321749445181482  0.8487481958743711  7.4006224192904630
 39.6920249483444820  0.8487481958743711  7.4006224192904630
 36.7518749521708159  0.8487481958743711  7.4006224192904630
 33.8117249559971498  0.8487481958743711  7.4006224192904630
 30.8715749598234872  0.8487481958743711  7.4006224192904630
 27.9314249636498211  0.8487481958743711  7.4006224192904630
 24.9912749674761550  0.8487481958743711  7.4006224192904630
 22.0511249713024888  0.8487481958743711  7.4006224192904630
 19.1109749751288227  0.8487481958743711  7.4006224192904630
 16.1708249789551566  0.8487481958743711  7.4006224192904630
 13.2306749827814940  0.8487481958743711  7.4006224192904630
 10.2905249866078297  0.8487481958743711  7.4006224192904630
 47.0067580981081719  0.0205518367906923 12.2019999999999982
  2.8578740359832193  0.0474400413901965 12.2019999999999982
  5.6981119579391040  0.1050383788468533 12.2019999999999982
  8.4494034778152756  0.2138708987815155 12.2019999999999982
 11.1044157282376084  0.3780064152624763 12.2019999999999982
 13.7324373673567486  0.5570486378754254 12.2019999999999982
 16.4301306530309574  0.6942575943280769 12.2019999999999982
 19.2243844113689839  0.7719101370379854 12.2019999999999982
 22.0821681343406659  0.8039684061246198 12.2019999999999982
 24.9602318044379778  0.8039684061246198 12.2019999999999982
 27.8180155274096634  0.7719101370379854 12.2019999999999982
 30.6122692857476899  0.6942575943280769 12.2019999999999982
 33.3099625714218988  0.5570486378754254 12.2019999999999982
 35.9379842105410390  0.3780064152624763 12.2019999999999982
 38.5929964609633700  0.2138708987815154 12.2019999999999982
  2.9401499961736652  1.6974963917487422  9.8012448385809279
 41.3442879808395389  0.1050383788468533 12.2019999999999982
  7.3503749904341635  0.8487481958743711  7.4006224192904630
  1.4700749980868326  0.8487481958743711  7.4006224192904630
 44.1022499426049777  1.6974963917487422  9.8012448385809279
 41.1620999464313115  1.6974963917487422  9.8012448385809279
 38.2219499502576454  1.6974963917487422  9.8012448385809279
 32.3416499579103132  1.6974963917487422  9.8012448385809279
 29.4014999617366506  1.6974963917487422  9.8012448385809279
 26.4613499655629880  1.6974963917487422  9.8012448385809279
 23.5211999693893254  1.6974963917487422  9.8012448385809279
 20.5810499732156593  1.6974963917487422  9.8012448385809279
 17.6408999770419932  1.6974963917487422  9.8012448385809279
 35.2817999540839793  1.6974963917487422  9.8012448385809279
 14.7007499808683271  1.6974963917487422  9.8012448385809279
 11.7605999846946609  1.6974963917487422  9.8012448385809279
  8.8204499885209948  1.6974963917487422  9.8012448385809279
  5.8802999923473305  1.6974963917487422  9.8012448385809279
 41.1620999464313115  0.0000000000000000  5.0000000000000000
 38.2219499502576454  0.0000000000000000  5.0000000000000000
 35.2817999540839793  0.0000000000000000  5.0000000000000000
 32.3416499579103203  0.0000000000000000  5.0000000000000000
 29.4014999617366541  0.0000000000000000  5.0000000000000000
 26.4613499655629880  0.0000000000000000  5.0000000000000000
 44.1022499426049777  0.0000000000000000  5.0000000000000000
 23.5211999693893219  0.0000000000000000  5.0000000000000000
 17.6408999770419896  0.0000000000000000  5.0000000000000000
 14.7007499808683271  0.0000000000000000  5.0000000000000000
 11.7605999846946609  0.0000000000000000  5.0000000000000000
  8.8204499885209948  0.0000000000000000  5.0000000000000000
  5.8802999923473305  0.0000000000000000  5.0000000000000000
  2.9401499961736648  0.0000000000000000  5.0000000000000000
 20.5810499732156558  0.0000000000000000  5.0000000000000000
  4.4102249942604974  0.8487481958743711  7.4006224192904630
 44.1845259027954285  0.0474400413901965 12.2019999999999982
