Au
 1.0000000000000000
    23.5211999693893219    0.0000000000000000    0.0000000000000000
     2.9401499961736652    5.0924891752462269    0.0000000000000000
     0.0000000000000000    0.0000000000000000    9.6024896771618575
 Au 
  72
Cartesian
  0.0000000000000000  0.0000000000000000  5.0000000000000000
  8.8204499885209948  0.0000000000000000 12.2018672578713936
  5.8802999923473305  0.0000000000000000 12.2018672578713936
  2.9401499961736652  0.0000000000000000 12.2018672578713936
  0.0000000000000000  0.0000000000000000 12.2018672578713936
 22.0511249713024888  4.2437409793718555  9.8012448385809279
 19.1109749751288227  4.2437409793718555  9.8012448385809279
 11.7605999846946609  0.0000000000000000 12.2018672578713936
 16.1708249789551601  4.2437409793718555  9.8012448385809279
 10.2905249866078279  4.2437409793718555  9.8012448385809279
  7.3503749904341635  4.2437409793718555  9.8012448385809279
  4.4102249942604974  4.2437409793718555  9.8012448385809279
  1.4700749980868324  4.2437409793718555  9.8012448385809279
 20.5810499732156593  1.6974963917487422  9.8012448385809279
 17.6408999770419932  1.6974963917487422  9.8012448385809279
 13.2306749827814940  4.2437409793718555  9.8012448385809279
 14.7007499808683271  1.6974963917487422  9.8012448385809279
 14.7007499808683271  0.0000000000000000 12.2018672578713936
 20.5810499732156558  0.0000000000000000 12.2018672578713936
  5.8802999923473305  3.3949927834974845 14.5999999999999979
  2.9401499961736652  3.3949927834974845 14.5999999999999979
 10.2905249866078297  0.8487481958743711 14.5999999999999979
  7.3503749904341635  0.8487481958743711 14.5999999999999979
  4.4102249942604974  0.8487481958743711 14.5999999999999979
  1.4700749980868326  0.8487481958743711 14.5999999999999979
 17.6408999770419896  0.0000000000000000 12.2018672578713936
 22.0511249713024888  2.5462445876231135 12.2018672578713936
 16.1708249789551601  2.5462445876231135 12.2018672578713936
 13.2306749827814940  2.5462445876231135 12.2018672578713936
 10.2905249866078279  2.5462445876231135 12.2018672578713936
  7.3503749904341635  2.5462445876231135 12.2018672578713936
  4.4102249942604974  2.5462445876231135 12.2018672578713936
  1.4700749980868326  2.5462445876231135 12.2018672578713936
 19.1109749751288227  2.5462445876231135 12.2018672578713936
 11.7605999846946609  1.6974963917487422  9.8012448385809279
  8.8204499885209948  1.6974963917487422  9.8012448385809279
  5.8802999923473305  1.6974963917487422  9.8012448385809279
 19.1109749751288227  2.5462445876231135  5.0000000000000000
 16.1708249789551601  2.5462445876231135  5.0000000000000000
 13.2306749827814940  2.5462445876231135  5.0000000000000000
 10.2905249866078279  2.5462445876231135  5.0000000000000000
  7.3503749904341635  2.5462445876231135  5.0000000000000000
  4.4102249942604974  2.5462445876231135  5.0000000000000000
 22.0511249713024888  2.5462445876231135  5.0000000000000000
  1.4700749980868326  2.5462445876231135  5.0000000000000000
 17.6408999770419896  0.0000000000000000  5.0000000000000000
 14.7007499808683271  0.0000000000000000  5.0000000000000000
 11.7605999846946609  0.0000000000000000  5.0000000000000000
  8.8204499885209948  0.0000000000000000  5.0000000000000000
  5.8802999923473305  0.0000000000000000  5.0000000000000000
  2.9401499961736652  0.0000000000000000  5.0000000000000000
 20.5810499732156558  0.0000000000000000  5.0000000000000000
  1.4700749980868326  0.8487481958743711  7.4006224192904639
  4.4102249942604974  0.8487481958743711  7.4006224192904639
  7.3503749904341635  0.8487481958743711  7.4006224192904639
  2.9401499961736652  1.6974963917487422  9.8012448385809279
  0.0000000000000000  1.6974963917487422  9.8012448385809279
 23.5211999693893219  3.3949927834974845  7.4006224192904639
 20.5810499732156558  3.3949927834974845  7.4006224192904639
 17.6408999770419896  3.3949927834974845  7.4006224192904639
 14.7007499808683253  3.3949927834974845  7.4006224192904639
 11.7605999846946609  3.3949927834974845  7.4006224192904639
  8.8204499885209966  3.3949927834974845  7.4006224192904639
  5.8802999923473305  3.3949927834974845  7.4006224192904639
  2.9401499961736652  3.3949927834974845  7.4006224192904639
 22.0511249713024888  0.8487481958743711  7.4006224192904639
 19.1109749751288227  0.8487481958743711  7.4006224192904639
 16.1708249789551566  0.8487481958743711  7.4006224192904639
 13.2306749827814940  0.8487481958743711  7.4006224192904639
 10.2905249866078297  0.8487481958743711  7.4006224192904639
  8.8204499885209966  3.3949927834974845 14.5999999999999979
 11.7605999846946609  3.3949927834974845 14.5999999999999979
