Au
 1.0000000000000000
    70.5635999081679586    0.0000000000000000    0.0000000000000000
     2.9401499961736652    5.0924891752462269    0.0000000000000000
     0.0000000000000000    0.0000000000000000    9.6024896771618575
 Au 
 216
Cartesian
  0.0000000000000000  0.0000000000000000  5.0000000000000000
 51.4526249330391394  4.2437409793718555  9.8012448385809279
 54.3927749292128055  4.2437409793718555  9.8012448385809279
 57.3329249253864717  4.2437409793718555  9.8012448385809279
 60.2730749215601307  4.2437409793718555  9.8012448385809279
 63.2132249177337968  4.2437409793718555  9.8012448385809279
 66.1533749139074558  4.2437409793718555  9.8012448385809279
 69.0935249100811149  4.2437409793718555  9.8012448385809279
  0.0000000000000000  0.0000000000000000 12.2018672578713936
  2.9401499961736648  0.0000000000000000 12.2018672578713936
  5.8802999923473296  0.0000000000000000 12.2018672578713936
  8.8204499885209948  0.0000000000000000 12.2018672578713936
 11.7605999846946592  0.0000000000000000 12.2018672578713936
 14.7007499808683235  0.0000000000000000 12.2018672578713936
 17.6408999770419896  0.0000000000000000 12.2018672578713936
 20.5810499732156522  0.0000000000000000 12.2018672578713936
 23.5211999693893183  0.0000000000000000 12.2018672578713936
 26.4613499655629845  0.0000000000000000 12.2018672578713936
 29.4014999617366470  0.0000000000000000 12.2018672578713936
 32.3416499579103132  0.0000000000000000 12.2018672578713936
 35.2817999540839793  0.0000000000000000 12.2018672578713936
 38.2219499502576454  0.0000000000000000 12.2018672578713936
 41.1620999464313044  0.0000000000000000 12.2018672578713936
 44.1022499426049706  0.0000000000000000 12.2018672578713936
 48.5124749368654662  4.2437409793718555  9.8012448385809279
 47.0423999387786367  0.0000000000000000 12.2018672578713936
 45.5723249406918072  4.2437409793718555  9.8012448385809279
 39.6920249483444749  4.2437409793718555  9.8012448385809279
 41.1620999464313044  1.6974963917487422  9.8012448385809279
 44.1022499426049706  1.6974963917487422  9.8012448385809279
 47.0423999387786296  1.6974963917487422  9.8012448385809279
 49.9825499349523028  1.6974963917487422  9.8012448385809279
 52.9226999311259689  1.6974963917487422  9.8012448385809279
 55.8628499272996351  1.6974963917487422  9.8012448385809279
 58.8029999234732941  1.6974963917487422  9.8012448385809279
 61.7431499196469602  1.6974963917487422  9.8012448385809279
 64.6832999158206263  1.6974963917487422  9.8012448385809279
 67.6234499119942853  1.6974963917487422  9.8012448385809279
  1.4700749980868326  4.2437409793718555  9.8012448385809279
  4.4102249942604974  4.2437409793718555  9.8012448385809279
  7.3503749904341618  4.2437409793718555  9.8012448385809279
 10.2905249866078261  4.2437409793718555  9.8012448385809279
 13.2306749827814922  4.2437409793718555  9.8012448385809279
 16.1708249789551566  4.2437409793718555  9.8012448385809279
 19.1109749751288192  4.2437409793718555  9.8012448385809279
 22.0511249713024853  4.2437409793718555  9.8012448385809279
 24.9912749674761514  4.2437409793718555  9.8012448385809279
 27.9314249636498140  4.2437409793718555  9.8012448385809279
 30.8715749598234765  4.2437409793718555  9.8012448385809279
 33.8117249559971427  4.2437409793718555  9.8012448385809279
 36.7518749521708088  4.2437409793718555  9.8012448385809279
 42.6321749445181410  4.2437409793718555  9.8012448385809279
 38.2219499502576383  1.6974963917487422  9.8012448385809279
 49.9825499349523028  0.0000000000000000 12.2018672578713936
 55.8628499272996280  0.0000000000000000 12.2018672578713936
 69.0935249100811149  2.5462445876231135 12.2018672578713936
  1.4700749980868324  0.8487481958743711 14.5999999999999979
  4.4102249942604974  0.8487481958743711 14.5999999999999979
  7.3503749904341626  0.8487481958743711 14.5999999999999979
 10.2905249866078279  0.8487481958743711 14.5999999999999979
 13.2306749827814922  0.8487481958743711 14.5999999999999979
 16.1708249789551566  0.8487481958743711 14.5999999999999979
 19.1109749751288192  0.8487481958743711 14.5999999999999979
 22.0511249713024853  0.8487481958743711 14.5999999999999979
 24.9912749674761514  0.8487481958743711 14.5999999999999979
 27.9314249636498175  0.8487481958743711 14.5999999999999979
 30.8715749598234801  0.8487481958743711 14.5999999999999979
 33.8117249559971427  0.8487481958743711 14.5999999999999979
  2.9401499961736648  3.3949927834974845 14.5999999999999979
  5.8802999923473296  3.3949927834974845 14.5999999999999979
  8.8204499885209948  3.3949927834974845 14.5999999999999979
 11.7605999846946592  3.3949927834974845 14.5999999999999979
 14.7007499808683235  3.3949927834974845 14.5999999999999979
 17.6408999770419896  3.3949927834974845 14.5999999999999979
 20.5810499732156522  3.3949927834974845 14.5999999999999979
 23.5211999693893183  3.3949927834974845 14.5999999999999979
 26.4613499655629845  3.3949927834974845 14.5999999999999979
 29.4014999617366506  3.3949927834974845 14.5999999999999979
 66.1533749139074558  2.5462445876231135 12.2018672578713936
 52.9226999311259689  0.0000000000000000 12.2018672578713936
 63.2132249177337897  2.5462445876231135 12.2018672578713936
 57.3329249253864575  2.5462445876231135 12.2018672578713936
 58.8029999234732941  0.0000000000000000 12.2018672578713936
 61.7431499196469602  0.0000000000000000 12.2018672578713936
 64.6832999158206263  0.0000000000000000 12.2018672578713936
 67.6234499119942853  0.0000000000000000 12.2018672578713936
  1.4700749980868326  2.5462445876231135 12.2018672578713936
  4.4102249942604974  2.5462445876231135 12.2018672578713936
  7.3503749904341618  2.5462445876231135 12.2018672578713936
 10.2905249866078279  2.5462445876231135 12.2018672578713936
 13.2306749827814922  2.5462445876231135 12.2018672578713936
 16.1708249789551566  2.5462445876231135 12.2018672578713936
 19.1109749751288227  2.5462445876231135 12.2018672578713936
 22.0511249713024853  2.5462445876231135 12.2018672578713936
 24.9912749674761514  2.5462445876231135 12.2018672578713936
 27.9314249636498175  2.5462445876231135 12.2018672578713936
 30.8715749598234801  2.5462445876231135 12.2018672578713936
 33.8117249559971427  2.5462445876231135 12.2018672578713936
 36.7518749521708088  2.5462445876231135 12.2018672578713936
 39.6920249483444749  2.5462445876231135 12.2018672578713936
 42.6321749445181339  2.5462445876231135 12.2018672578713936
 45.5723249406918001  2.5462445876231135 12.2018672578713936
 48.5124749368654662  2.5462445876231135 12.2018672578713936
 51.4526249330391323  2.5462445876231135 12.2018672578713936
 54.3927749292127984  2.5462445876231135 12.2018672578713936
 60.2730749215601236  2.5462445876231135 12.2018672578713936
 35.2817999540839722  1.6974963917487422  9.8012448385809279
 32.3416499579103132  1.6974963917487422  9.8012448385809279
 29.4014999617366470  1.6974963917487422  9.8012448385809279
 13.2306749827814922  2.5462445876231135  5.0000000000000000
 16.1708249789551566  2.5462445876231135  5.0000000000000000
 19.1109749751288227  2.5462445876231135  5.0000000000000000
 22.0511249713024853  2.5462445876231135  5.0000000000000000
 24.9912749674761514  2.5462445876231135  5.0000000000000000
 27.9314249636498175  2.5462445876231135  5.0000000000000000
 30.8715749598234801  2.5462445876231135  5.0000000000000000
 33.8117249559971427  2.5462445876231135  5.0000000000000000
 36.7518749521708088  2.5462445876231135  5.0000000000000000
 39.6920249483444749  2.5462445876231135  5.0000000000000000
 42.6321749445181339  2.5462445876231135  5.0000000000000000
 45.5723249406918001  2.5462445876231135  5.0000000000000000
 48.5124749368654662  2.5462445876231135  5.0000000000000000
 51.4526249330391323  2.5462445876231135  5.0000000000000000
 54.3927749292127984  2.5462445876231135  5.0000000000000000
 57.3329249253864575  2.5462445876231135  5.0000000000000000
 60.2730749215601236  2.5462445876231135  5.0000000000000000
 63.2132249177337897  2.5462445876231135  5.0000000000000000
 66.1533749139074558  2.5462445876231135  5.0000000000000000
 69.0935249100811149  2.5462445876231135  5.0000000000000000
  1.4700749980868324  0.8487481958743711  7.4006224192904639
  4.4102249942604974  0.8487481958743711  7.4006224192904639
  7.3503749904341626  0.8487481958743711  7.4006224192904639
 10.2905249866078279  2.5462445876231135  5.0000000000000000
 10.2905249866078279  0.8487481958743711  7.4006224192904639
  7.3503749904341618  2.5462445876231135  5.0000000000000000
  1.4700749980868326  2.5462445876231135  5.0000000000000000
  2.9401499961736648  0.0000000000000000  5.0000000000000000
  5.8802999923473296  0.0000000000000000  5.0000000000000000
  8.8204499885209948  0.0000000000000000  5.0000000000000000
 11.7605999846946592  0.0000000000000000  5.0000000000000000
 14.7007499808683235  0.0000000000000000  5.0000000000000000
 17.6408999770419896  0.0000000000000000  5.0000000000000000
 20.5810499732156522  0.0000000000000000  5.0000000000000000
 23.5211999693893183  0.0000000000000000  5.0000000000000000
 26.4613499655629845  0.0000000000000000  5.0000000000000000
 29.4014999617366470  0.0000000000000000  5.0000000000000000
 32.3416499579103132  0.0000000000000000  5.0000000000000000
 35.2817999540839793  0.0000000000000000  5.0000000000000000
 38.2219499502576454  0.0000000000000000  5.0000000000000000
 41.1620999464313044  0.0000000000000000  5.0000000000000000
 44.1022499426049706  0.0000000000000000  5.0000000000000000
 47.0423999387786367  0.0000000000000000  5.0000000000000000
 49.9825499349523028  0.0000000000000000  5.0000000000000000
 52.9226999311259689  0.0000000000000000  5.0000000000000000
 55.8628499272996280  0.0000000000000000  5.0000000000000000
 58.8029999234732941  0.0000000000000000  5.0000000000000000
 61.7431499196469602  0.0000000000000000  5.0000000000000000
 64.6832999158206263  0.0000000000000000  5.0000000000000000
 67.6234499119942853  0.0000000000000000  5.0000000000000000
  4.4102249942604974  2.5462445876231135  5.0000000000000000
 13.2306749827814922  0.8487481958743711  7.4006224192904639
 16.1708249789551566  0.8487481958743711  7.4006224192904639
 19.1109749751288192  0.8487481958743711  7.4006224192904639
 35.2817999540839793  3.3949927834974845  7.4006224192904639
 38.2219499502576454  3.3949927834974845  7.4006224192904639
 41.1620999464313115  3.3949927834974845  7.4006224192904639
 44.1022499426049777  3.3949927834974845  7.4006224192904639
 47.0423999387786438  3.3949927834974845  7.4006224192904639
 49.9825499349523028  3.3949927834974845  7.4006224192904639
 52.9226999311259689  3.3949927834974845  7.4006224192904639
 55.8628499272996280  3.3949927834974845  7.4006224192904639
 58.8029999234732941  3.3949927834974845  7.4006224192904639
 61.7431499196469602  3.3949927834974845  7.4006224192904639
 64.6832999158206263  3.3949927834974845  7.4006224192904639
 67.6234499119942853  3.3949927834974845  7.4006224192904639
 70.5635999081679444  3.3949927834974845  7.4006224192904639
  0.0000000000000001  1.6974963917487422  9.8012448385809279
  2.9401499961736652  1.6974963917487422  9.8012448385809279
  5.8802999923473296  1.6974963917487422  9.8012448385809279
  8.8204499885209948  1.6974963917487422  9.8012448385809279
 11.7605999846946592  1.6974963917487422  9.8012448385809279
 14.7007499808683253  1.6974963917487422  9.8012448385809279
 17.6408999770419896  1.6974963917487422  9.8012448385809279
 20.5810499732156558  1.6974963917487422  9.8012448385809279
 23.5211999693893219  1.6974963917487422  9.8012448385809279
 26.4613499655629845  1.6974963917487422  9.8012448385809279
 32.3416499579103132  3.3949927834974845  7.4006224192904639
 29.4014999617366506  3.3949927834974845  7.4006224192904639
 26.4613499655629845  3.3949927834974845  7.4006224192904639
 23.5211999693893183  3.3949927834974845  7.4006224192904639
 22.0511249713024853  0.8487481958743711  7.4006224192904639
 24.9912749674761514  0.8487481958743711  7.4006224192904639
 27.9314249636498175  0.8487481958743711  7.4006224192904639
 30.8715749598234801  0.8487481958743711  7.4006224192904639
 33.8117249559971427  0.8487481958743711  7.4006224192904639
 36.7518749521708088  0.8487481958743711  7.4006224192904639
 39.6920249483444749  0.8487481958743711  7.4006224192904639
 42.6321749445181410  0.8487481958743711  7.4006224192904639
 45.5723249406918072  0.8487481958743711  7.4006224192904639
 48.5124749368654662  0.8487481958743711  7.4006224192904639
 51.4526249330391323  0.8487481958743711  7.4006224192904639
 32.3416499579103132  3.3949927834974845 14.5999999999999979
 54.3927749292127913  0.8487481958743711  7.4006224192904639
 60.2730749215601236  0.8487481958743711  7.4006224192904639
 63.2132249177337897  0.8487481958743711  7.4006224192904639
 66.1533749139074558  0.8487481958743711  7.4006224192904639
 69.0935249100811149  0.8487481958743711  7.4006224192904639
  2.9401499961736648  3.3949927834974845  7.4006224192904639
  5.8802999923473296  3.3949927834974845  7.4006224192904639
  8.8204499885209948  3.3949927834974845  7.4006224192904639
 11.7605999846946592  3.3949927834974845  7.4006224192904639
 14.7007499808683235  3.3949927834974845  7.4006224192904639
 17.6408999770419896  3.3949927834974845  7.4006224192904639
 20.5810499732156522  3.3949927834974845  7.4006224192904639
 57.3329249253864575  0.8487481958743711  7.4006224192904639
 35.2817999540839793  3.3949927834974845 14.5999999999999979
