Au
 1.0000000000000000
    23.5211999693893219    0.0000000000000000    0.0000000000000000
     1.4700749980868326    2.5462445876231135    0.0000000000000000
     0.0000000000000000    0.0000000000000000    9.6024896771618575
 Au 
  36
Cartesian
  0.0000000000000000  0.0000000000000000  5.0000000000000000
 11.7605999846946609  1.6974963917487422  9.8012448385809279
 14.7007499808683271  1.6974963917487422  9.8012448385809279
 17.6408999770419932  1.6974963917487422  9.8012448385809279
 20.5810499732156593  1.6974963917487422  9.8012448385809279
  0.0000000000000000  0.0000000000000000 12.2018672578713936
  2.9401499961736652  0.0000000000000000 12.2018672578713936
  8.8204499885209948  1.6974963917487422  9.8012448385809279
  5.8802999923473305  0.0000000000000000 12.2018672578713936
 11.7605999846946609  0.0000000000000000 12.2018672578713936
 14.7007499808683271  0.0000000000000000 12.2018672578713936
 17.6408999770419896  0.0000000000000000 12.2018672578713936
 20.5810499732156558  0.0000000000000000 12.2018672578713936
  1.4700749980868326  0.8487481958743711 14.5999999999999979
  4.4102249942604974  0.8487481958743711 14.5999999999999979
  8.8204499885209948  0.0000000000000000 12.2018672578713936
  5.8802999923473305  1.6974963917487422  9.8012448385809279
  2.9401499961736652  1.6974963917487422  9.8012448385809279
  0.0000000000000000  1.6974963917487422  9.8012448385809279
  2.9401499961736652  0.0000000000000000  5.0000000000000000
  5.8802999923473305  0.0000000000000000  5.0000000000000000
  8.8204499885209948  0.0000000000000000  5.0000000000000000
 11.7605999846946609  0.0000000000000000  5.0000000000000000
 14.7007499808683271  0.0000000000000000  5.0000000000000000
 17.6408999770419896  0.0000000000000000  5.0000000000000000
 20.5810499732156558  0.0000000000000000  5.0000000000000000
  1.4700749980868326  0.8487481958743711  7.4006224192904639
  4.4102249942604974  0.8487481958743711  7.4006224192904639
  7.3503749904341635  0.8487481958743711  7.4006224192904639
 10.2905249866078297  0.8487481958743711  7.4006224192904639
 13.2306749827814940  0.8487481958743711  7.4006224192904639
 16.1708249789551566  0.8487481958743711  7.4006224192904639
 19.1109749751288227  0.8487481958743711  7.4006224192904639
 22.0511249713024888  0.8487481958743711  7.4006224192904639
  7.3503749904341635  0.8487481958743711 14.5999999999999979
 10.2905249866078297  0.8487481958743711 14.5999999999999979
