Au
 1.0000000000000000
    47.0423999387786438    0.0000000000000000    0.0000000000000000
     2.9401499961736652    5.0924891752462269    0.0000000000000000
     0.0000000000000000    0.0000000000000000    9.6024896771618575
 Au 
 144
Cartesian
  0.0000000000000000  0.0000000000000000  5.0000000000000000
 36.7518749521708159  4.2437409793718555  9.8012448385809279
 39.6920249483444820  4.2437409793718555  9.8012448385809279
 42.6321749445181482  4.2437409793718555  9.8012448385809279
 45.5723249406918143  4.2437409793718555  9.8012448385809279
  0.0000000000000000  0.0000000000000000 12.2018672578713936
  2.9401499961736652  0.0000000000000000 12.2018672578713936
 33.8117249559971498  4.2437409793718555  9.8012448385809279
  5.8802999923473305  0.0000000000000000 12.2018672578713936
 11.7605999846946609  0.0000000000000000 12.2018672578713936
 14.7007499808683271  0.0000000000000000 12.2018672578713936
 17.6408999770419896  0.0000000000000000 12.2018672578713936
 20.5810499732156558  0.0000000000000000 12.2018672578713936
 23.5211999693893219  0.0000000000000000 12.2018672578713936
 26.4613499655629880  0.0000000000000000 12.2018672578713936
  8.8204499885209948  0.0000000000000000 12.2018672578713936
 29.4014999617366541  0.0000000000000000 12.2018672578713936
 30.8715749598234801  4.2437409793718555  9.8012448385809279
 24.9912749674761550  4.2437409793718555  9.8012448385809279
 29.4014999617366506  1.6974963917487422  9.8012448385809279
 32.3416499579103132  1.6974963917487422  9.8012448385809279
 35.2817999540839793  1.6974963917487422  9.8012448385809279
 38.2219499502576454  1.6974963917487422  9.8012448385809279
 41.1620999464313115  1.6974963917487422  9.8012448385809279
 44.1022499426049777  1.6974963917487422  9.8012448385809279
 27.9314249636498175  4.2437409793718555  9.8012448385809279
  1.4700749980868324  4.2437409793718555  9.8012448385809279
  7.3503749904341635  4.2437409793718555  9.8012448385809279
 10.2905249866078279  4.2437409793718555  9.8012448385809279
 13.2306749827814940  4.2437409793718555  9.8012448385809279
 16.1708249789551601  4.2437409793718555  9.8012448385809279
 19.1109749751288227  4.2437409793718555  9.8012448385809279
 22.0511249713024888  4.2437409793718555  9.8012448385809279
  4.4102249942604974  4.2437409793718555  9.8012448385809279
 26.4613499655629880  1.6974963917487422  9.8012448385809279
 32.3416499579103203  0.0000000000000000 12.2018672578713936
 38.2219499502576454  0.0000000000000000 12.2018672578713936
  1.4700749980868326  0.8487481958743711 14.5999999999999979
  4.4102249942604974  0.8487481958743711 14.5999999999999979
  7.3503749904341635  0.8487481958743711 14.5999999999999979
 10.2905249866078297  0.8487481958743711 14.5999999999999979
 13.2306749827814940  0.8487481958743711 14.5999999999999979
 16.1708249789551566  0.8487481958743711 14.5999999999999979
 45.5723249406918072  2.5462445876231135 12.2018672578713936
 19.1109749751288227  0.8487481958743711 14.5999999999999979
  2.9401499961736652  3.3949927834974845 14.5999999999999979
  5.8802999923473305  3.3949927834974845 14.5999999999999979
  8.8204499885209966  3.3949927834974845 14.5999999999999979
 11.7605999846946609  3.3949927834974845 14.5999999999999979
 14.7007499808683253  3.3949927834974845 14.5999999999999979
 17.6408999770419896  3.3949927834974845 14.5999999999999979
 22.0511249713024888  0.8487481958743711 14.5999999999999979
 35.2817999540839793  0.0000000000000000 12.2018672578713936
 42.6321749445181410  2.5462445876231135 12.2018672578713936
 36.7518749521708088  2.5462445876231135 12.2018672578713936
 41.1620999464313115  0.0000000000000000 12.2018672578713936
 44.1022499426049777  0.0000000000000000 12.2018672578713936
  1.4700749980868326  2.5462445876231135 12.2018672578713936
  4.4102249942604974  2.5462445876231135 12.2018672578713936
  7.3503749904341635  2.5462445876231135 12.2018672578713936
 10.2905249866078279  2.5462445876231135 12.2018672578713936
 39.6920249483444749  2.5462445876231135 12.2018672578713936
 13.2306749827814940  2.5462445876231135 12.2018672578713936
 19.1109749751288227  2.5462445876231135 12.2018672578713936
 22.0511249713024888  2.5462445876231135 12.2018672578713936
 24.9912749674761550  2.5462445876231135 12.2018672578713936
 27.9314249636498211  2.5462445876231135 12.2018672578713936
 30.8715749598234872  2.5462445876231135 12.2018672578713936
 33.8117249559971498  2.5462445876231135 12.2018672578713936
 16.1708249789551601  2.5462445876231135 12.2018672578713936
 23.5211999693893254  1.6974963917487422  9.8012448385809279
 20.5810499732156593  1.6974963917487422  9.8012448385809279
 17.6408999770419932  1.6974963917487422  9.8012448385809279
 10.2905249866078279  2.5462445876231135  5.0000000000000000
 13.2306749827814940  2.5462445876231135  5.0000000000000000
 16.1708249789551601  2.5462445876231135  5.0000000000000000
 19.1109749751288227  2.5462445876231135  5.0000000000000000
 22.0511249713024888  2.5462445876231135  5.0000000000000000
 24.9912749674761550  2.5462445876231135  5.0000000000000000
  7.3503749904341635  2.5462445876231135  5.0000000000000000
 27.9314249636498211  2.5462445876231135  5.0000000000000000
 33.8117249559971498  2.5462445876231135  5.0000000000000000
 36.7518749521708088  2.5462445876231135  5.0000000000000000
 39.6920249483444749  2.5462445876231135  5.0000000000000000
 42.6321749445181410  2.5462445876231135  5.0000000000000000
 45.5723249406918072  2.5462445876231135  5.0000000000000000
  1.4700749980868326  0.8487481958743711  7.4006224192904639
 30.8715749598234872  2.5462445876231135  5.0000000000000000
  4.4102249942604974  0.8487481958743711  7.4006224192904639
  4.4102249942604974  2.5462445876231135  5.0000000000000000
 44.1022499426049777  0.0000000000000000  5.0000000000000000
  2.9401499961736652  0.0000000000000000  5.0000000000000000
  5.8802999923473305  0.0000000000000000  5.0000000000000000
  8.8204499885209948  0.0000000000000000  5.0000000000000000
 11.7605999846946609  0.0000000000000000  5.0000000000000000
 14.7007499808683271  0.0000000000000000  5.0000000000000000
 17.6408999770419896  0.0000000000000000  5.0000000000000000
  1.4700749980868326  2.5462445876231135  5.0000000000000000
 20.5810499732156558  0.0000000000000000  5.0000000000000000
 26.4613499655629880  0.0000000000000000  5.0000000000000000
 29.4014999617366541  0.0000000000000000  5.0000000000000000
 32.3416499579103203  0.0000000000000000  5.0000000000000000
 35.2817999540839793  0.0000000000000000  5.0000000000000000
 38.2219499502576454  0.0000000000000000  5.0000000000000000
 41.1620999464313115  0.0000000000000000  5.0000000000000000
 23.5211999693893219  0.0000000000000000  5.0000000000000000
  7.3503749904341635  0.8487481958743711  7.4006224192904639
 10.2905249866078297  0.8487481958743711  7.4006224192904639
 13.2306749827814940  0.8487481958743711  7.4006224192904639
 26.4613499655629880  3.3949927834974845  7.4006224192904639
 29.4014999617366541  3.3949927834974845  7.4006224192904639
 32.3416499579103203  3.3949927834974845  7.4006224192904639
 35.2817999540839864  3.3949927834974845  7.4006224192904639
 38.2219499502576525  3.3949927834974845  7.4006224192904639
 41.1620999464313186  3.3949927834974845  7.4006224192904639
 23.5211999693893219  3.3949927834974845  7.4006224192904639
 44.1022499426049848  3.3949927834974845  7.4006224192904639
  0.0000000000000000  1.6974963917487422  9.8012448385809279
  2.9401499961736652  1.6974963917487422  9.8012448385809279
  5.8802999923473305  1.6974963917487422  9.8012448385809279
  8.8204499885209948  1.6974963917487422  9.8012448385809279
 11.7605999846946609  1.6974963917487422  9.8012448385809279
 14.7007499808683271  1.6974963917487422  9.8012448385809279
 47.0423999387786509  3.3949927834974845  7.4006224192904639
 20.5810499732156558  3.3949927834974845  7.4006224192904639
 17.6408999770419896  3.3949927834974845  7.4006224192904639
 14.7007499808683253  3.3949927834974845  7.4006224192904639
 16.1708249789551566  0.8487481958743711  7.4006224192904639
 19.1109749751288227  0.8487481958743711  7.4006224192904639
 22.0511249713024888  0.8487481958743711  7.4006224192904639
 24.9912749674761550  0.8487481958743711  7.4006224192904639
 27.9314249636498211  0.8487481958743711  7.4006224192904639
 30.8715749598234872  0.8487481958743711  7.4006224192904639
 33.8117249559971498  0.8487481958743711  7.4006224192904639
 36.7518749521708159  0.8487481958743711  7.4006224192904639
 39.6920249483444820  0.8487481958743711  7.4006224192904639
 42.6321749445181482  0.8487481958743711  7.4006224192904639
 45.5723249406918143  0.8487481958743711  7.4006224192904639
  2.9401499961736652  3.3949927834974845  7.4006224192904639
  5.8802999923473305  3.3949927834974845  7.4006224192904639
  8.8204499885209966  3.3949927834974845  7.4006224192904639
 11.7605999846946609  3.3949927834974845  7.4006224192904639
 20.5810499732156558  3.3949927834974845 14.5999999999999979
 23.5211999693893219  3.3949927834974845 14.5999999999999979
