Au
 1.0000000000000000
    23.5211999693893219    0.0000000000000000    0.0000000000000000
     5.8802999923473305   10.1849783504924538    0.0000000000000000
     0.0000000000000000    0.0000000000000000    9.6024896771618575
 Au 
 144
Cartesian
  0.0000000000000000  0.0000000000000000  5.0000000000000000
 16.1708249789551601  9.3362301546180824  9.8012448385809279
 19.1109749751288263  9.3362301546180824  9.8012448385809279
 22.0511249713024888  9.3362301546180824  9.8012448385809279
 24.9912749674761550  9.3362301546180824  9.8012448385809279
  0.0000000000000000  0.0000000000000000 12.2018672578713936
  2.9401499961736652  0.0000000000000000 12.2018672578713936
 13.2306749827814940  9.3362301546180824  9.8012448385809279
  5.8802999923473305  0.0000000000000000 12.2018672578713936
 11.7605999846946609  0.0000000000000000 12.2018672578713936
 14.7007499808683271  0.0000000000000000 12.2018672578713936
 17.6408999770419896  0.0000000000000000 12.2018672578713936
 20.5810499732156558  0.0000000000000000 12.2018672578713936
  1.4700749980868326  2.5462445876231135 12.2018672578713936
  4.4102249942604974  2.5462445876231135 12.2018672578713936
  8.8204499885209948  0.0000000000000000 12.2018672578713936
  7.3503749904341635  2.5462445876231135 12.2018672578713936
 10.2905249866078279  9.3362301546180824  9.8012448385809279
  4.4102249942604983  9.3362301546180824  9.8012448385809279
  7.3503749904341635  4.2437409793718555  9.8012448385809279
 10.2905249866078279  4.2437409793718555  9.8012448385809279
 13.2306749827814940  4.2437409793718555  9.8012448385809279
 16.1708249789551601  4.2437409793718555  9.8012448385809279
 19.1109749751288227  4.2437409793718555  9.8012448385809279
 22.0511249713024888  4.2437409793718555  9.8012448385809279
  7.3503749904341635  9.3362301546180824  9.8012448385809279
  2.9401499961736652  6.7899855669949689  9.8012448385809279
  8.8204499885209948  6.7899855669949689  9.8012448385809279
 11.7605999846946609  6.7899855669949689  9.8012448385809279
 14.7007499808683271  6.7899855669949689  9.8012448385809279
 17.6408999770419932  6.7899855669949689  9.8012448385809279
 20.5810499732156558  6.7899855669949689  9.8012448385809279
 23.5211999693893219  6.7899855669949689  9.8012448385809279
  5.8802999923473305  6.7899855669949689  9.8012448385809279
  4.4102249942604974  4.2437409793718555  9.8012448385809279
 10.2905249866078279  2.5462445876231135 12.2018672578713936
 16.1708249789551601  2.5462445876231135 12.2018672578713936
  1.4700749980868326  0.8487481958743711 14.5999999999999979
  4.4102249942604974  0.8487481958743711 14.5999999999999979
  7.3503749904341635  0.8487481958743711 14.5999999999999979
 10.2905249866078297  0.8487481958743711 14.5999999999999979
  2.9401499961736652  3.3949927834974845 14.5999999999999979
  5.8802999923473305  3.3949927834974845 14.5999999999999979
 24.9912749674761514  7.6387337628693404 12.2018672578713936
  8.8204499885209966  3.3949927834974845 14.5999999999999979
  4.4102249942604983  5.9412373711205984 14.5999999999999979
  7.3503749904341635  5.9412373711205984 14.5999999999999979
 10.2905249866078297  5.9412373711205984 14.5999999999999979
 13.2306749827814940  5.9412373711205984 14.5999999999999979
  5.8802999923473305  8.4874819587437127 14.5999999999999979
  8.8204499885209948  8.4874819587437127 14.5999999999999979
 11.7605999846946609  3.3949927834974845 14.5999999999999979
 13.2306749827814940  2.5462445876231135 12.2018672578713936
 22.0511249713024853  7.6387337628693404 12.2018672578713936
 16.1708249789551601  7.6387337628693404 12.2018672578713936
 19.1109749751288227  2.5462445876231135 12.2018672578713936
 22.0511249713024888  2.5462445876231135 12.2018672578713936
  2.9401499961736652  5.0924891752462269 12.2018672578713936
  5.8802999923473305  5.0924891752462269 12.2018672578713936
  8.8204499885209948  5.0924891752462269 12.2018672578713936
 11.7605999846946609  5.0924891752462269 12.2018672578713936
 19.1109749751288263  7.6387337628693404 12.2018672578713936
 14.7007499808683271  5.0924891752462269 12.2018672578713936
 20.5810499732156558  5.0924891752462269 12.2018672578713936
 23.5211999693893219  5.0924891752462269 12.2018672578713936
  4.4102249942604974  7.6387337628693404 12.2018672578713936
  7.3503749904341626  7.6387337628693404 12.2018672578713936
 10.2905249866078279  7.6387337628693404 12.2018672578713936
 13.2306749827814922  7.6387337628693404 12.2018672578713936
 17.6408999770419932  5.0924891752462269 12.2018672578713936
  1.4700749980868324  4.2437409793718555  9.8012448385809279
 20.5810499732156593  1.6974963917487422  9.8012448385809279
 17.6408999770419932  1.6974963917487422  9.8012448385809279
 11.7605999846946609  5.0924891752462269  5.0000000000000000
 14.7007499808683271  5.0924891752462269  5.0000000000000000
 17.6408999770419932  5.0924891752462269  5.0000000000000000
 20.5810499732156558  5.0924891752462269  5.0000000000000000
 23.5211999693893219  5.0924891752462269  5.0000000000000000
  4.4102249942604974  7.6387337628693404  5.0000000000000000
  8.8204499885209948  5.0924891752462269  5.0000000000000000
  7.3503749904341626  7.6387337628693404  5.0000000000000000
 13.2306749827814922  7.6387337628693404  5.0000000000000000
 16.1708249789551601  7.6387337628693404  5.0000000000000000
 19.1109749751288263  7.6387337628693404  5.0000000000000000
 22.0511249713024853  7.6387337628693404  5.0000000000000000
 24.9912749674761514  7.6387337628693404  5.0000000000000000
  1.4700749980868326  0.8487481958743711  7.4006224192904639
 10.2905249866078279  7.6387337628693404  5.0000000000000000
  4.4102249942604974  0.8487481958743711  7.4006224192904639
  5.8802999923473305  5.0924891752462269  5.0000000000000000
 22.0511249713024888  2.5462445876231135  5.0000000000000000
  2.9401499961736652  0.0000000000000000  5.0000000000000000
  5.8802999923473305  0.0000000000000000  5.0000000000000000
  8.8204499885209948  0.0000000000000000  5.0000000000000000
 11.7605999846946609  0.0000000000000000  5.0000000000000000
 14.7007499808683271  0.0000000000000000  5.0000000000000000
 17.6408999770419896  0.0000000000000000  5.0000000000000000
  2.9401499961736652  5.0924891752462269  5.0000000000000000
 20.5810499732156558  0.0000000000000000  5.0000000000000000
  4.4102249942604974  2.5462445876231135  5.0000000000000000
  7.3503749904341635  2.5462445876231135  5.0000000000000000
 10.2905249866078279  2.5462445876231135  5.0000000000000000
 13.2306749827814940  2.5462445876231135  5.0000000000000000
 16.1708249789551601  2.5462445876231135  5.0000000000000000
 19.1109749751288227  2.5462445876231135  5.0000000000000000
  1.4700749980868326  2.5462445876231135  5.0000000000000000
  7.3503749904341635  0.8487481958743711  7.4006224192904639
 10.2905249866078297  0.8487481958743711  7.4006224192904639
 13.2306749827814940  0.8487481958743711  7.4006224192904639
  5.8802999923473305  8.4874819587437127  7.4006224192904639
  8.8204499885209948  8.4874819587437127  7.4006224192904639
 11.7605999846946609  8.4874819587437127  7.4006224192904639
 14.7007499808683271  8.4874819587437127  7.4006224192904639
 17.6408999770419896  8.4874819587437127  7.4006224192904639
 20.5810499732156558  8.4874819587437127  7.4006224192904639
 24.9912749674761550  5.9412373711205984  7.4006224192904639
 23.5211999693893219  8.4874819587437127  7.4006224192904639
  0.0000000000000000  1.6974963917487422  9.8012448385809279
  2.9401499961736652  1.6974963917487422  9.8012448385809279
  5.8802999923473305  1.6974963917487422  9.8012448385809279
  8.8204499885209948  1.6974963917487422  9.8012448385809279
 11.7605999846946609  1.6974963917487422  9.8012448385809279
 14.7007499808683271  1.6974963917487422  9.8012448385809279
 26.4613499655629880  8.4874819587437127  7.4006224192904639
 22.0511249713024888  5.9412373711205984  7.4006224192904639
 19.1109749751288227  5.9412373711205984  7.4006224192904639
 16.1708249789551601  5.9412373711205984  7.4006224192904639
 16.1708249789551566  0.8487481958743711  7.4006224192904639
 19.1109749751288227  0.8487481958743711  7.4006224192904639
 22.0511249713024888  0.8487481958743711  7.4006224192904639
  2.9401499961736652  3.3949927834974845  7.4006224192904639
  5.8802999923473305  3.3949927834974845  7.4006224192904639
  8.8204499885209966  3.3949927834974845  7.4006224192904639
 11.7605999846946609  3.3949927834974845  7.4006224192904639
 14.7007499808683253  3.3949927834974845  7.4006224192904639
 17.6408999770419896  3.3949927834974845  7.4006224192904639
 20.5810499732156558  3.3949927834974845  7.4006224192904639
 23.5211999693893219  3.3949927834974845  7.4006224192904639
  4.4102249942604983  5.9412373711205984  7.4006224192904639
  7.3503749904341635  5.9412373711205984  7.4006224192904639
 10.2905249866078297  5.9412373711205984  7.4006224192904639
 13.2306749827814940  5.9412373711205984  7.4006224192904639
 11.7605999846946609  8.4874819587437127 14.5999999999999979
 14.7007499808683271  8.4874819587437127 14.5999999999999979
