Au
 1.0000000000000000
    11.7605999846946609    0.0000000000000000    0.0000000000000000
     5.8802999923473305   10.1849783504924538    0.0000000000000000
     0.0000000000000000    0.0000000000000000    9.6024896771618575
 Au 
  64
Selective dynamics
Cartesian
  0.0000000000000000  0.0000000000000000  5.0000000000000000   F   F   F
  5.8802999923473305  1.6974963917487422  9.8012448385809279   T   T   T
  8.8204499885209948  1.6974963917487422  9.8012448385809279   T   T   T
  1.4700749980868324  4.2437409793718555  9.8012448385809279   T   T   T
  4.4102249942604974  4.2437409793718555  9.8012448385809279   T   T   T
  7.3503749904341635  4.2437409793718555  9.8012448385809279   T   T   T
 10.2905249866078279  4.2437409793718555  9.8012448385809279   T   T   T
  2.9401499961736652  6.7899855669949689  9.8012448385809279   T   T   T
  5.8802999923473305  6.7899855669949689  9.8012448385809279   T   T   T
  8.8204499885209948  6.7899855669949689  9.8012448385809279   T   T   T
 11.7605999846946609  6.7899855669949689  9.8012448385809279   T   T   T
  4.4102249942604983  9.3362301546180824  9.8012448385809279   T   T   T
  7.3503749904341635  9.3362301546180824  9.8012448385809279   T   T   T
 10.2905249866078279  9.3362301546180824  9.8012448385809279   T   T   T
  2.9401499961736652  1.6974963917487422  9.8012448385809279   T   T   T
 13.2306749827814940  9.3362301546180824  9.8012448385809279   T   T   T
  2.9401499961736652  0.0000000000000000 12.2018672578713936   T   T   T
  5.8802999923473305  0.0000000000000000 12.2018672578713936   T   T   T
  8.8204499885209948  0.0000000000000000 12.2018672578713936   T   T   T
  1.4700749980868326  2.5462445876231135 12.2018672578713936   T   T   T
  4.4102249942604974  2.5462445876231135 12.2018672578713936   T   T   T
  7.3503749904341635  2.5462445876231135 12.2018672578713936   T   T   T
 10.2905249866078279  2.5462445876231135 12.2018672578713936   T   T   T
  2.9401499961736652  5.0924891752462269 12.2018672578713936   T   T   T
  5.8802999923473305  5.0924891752462269 12.2018672578713936   T   T   T
  8.8204499885209948  5.0924891752462269 12.2018672578713936   T   T   T
 11.7605999846946609  5.0924891752462269 12.2018672578713936   T   T   T
  4.4102249942604974  7.6387337628693404 12.2018672578713936   T   T   T
  7.3503749904341626  7.6387337628693404 12.2018672578713936   T   T   T
  0.0000000000000000  0.0000000000000000 12.2018672578713936   T   T   T
  0.0000000000000000  1.6974963917487422  9.8012448385809279   T   T   T
 14.7007499808683271  8.4874819587437127  7.4006224192904639   F   F   F
 11.7605999846946609  8.4874819587437127  7.4006224192904639   F   F   F
  2.9401499961736652  0.0000000000000000  5.0000000000000000   F   F   F
  5.8802999923473305  0.0000000000000000  5.0000000000000000   F   F   F
  8.8204499885209948  0.0000000000000000  5.0000000000000000   F   F   F
  1.4700749980868326  2.5462445876231135  5.0000000000000000   F   F   F
  4.4102249942604974  2.5462445876231135  5.0000000000000000   F   F   F
  7.3503749904341635  2.5462445876231135  5.0000000000000000   F   F   F
 10.2905249866078279  2.5462445876231135  5.0000000000000000   F   F   F
  2.9401499961736652  5.0924891752462269  5.0000000000000000   F   F   F
  5.8802999923473305  5.0924891752462269  5.0000000000000000   F   F   F
  8.8204499885209948  5.0924891752462269  5.0000000000000000   F   F   F
 11.7605999846946609  5.0924891752462269  5.0000000000000000   F   F   F
  4.4102249942604974  7.6387337628693404  5.0000000000000000   F   F   F
  7.3503749904341626  7.6387337628693404  5.0000000000000000   F   F   F
 10.2905249866078279  7.6387337628693404  5.0000000000000000   F   F   F
 13.2306749827814922  7.6387337628693404  5.0000000000000000   F   F   F
  1.4700749980868326  0.8487481958743711  7.4006224192904639   F   F   F
  4.4102249942604974  0.8487481958743711  7.4006224192904639   F   F   F
  7.3503749904341635  0.8487481958743711  7.4006224192904639   F   F   F
 10.2905249866078297  0.8487481958743711  7.4006224192904639   F   F   F
  2.9401499961736652  3.3949927834974845  7.4006224192904639   F   F   F
  5.8802999923473305  3.3949927834974845  7.4006224192904639   F   F   F
  8.8204499885209966  3.3949927834974845  7.4006224192904639   F   F   F
 11.7605999846946609  3.3949927834974845  7.4006224192904639   F   F   F
  4.4102249942604983  5.9412373711205984  7.4006224192904639   F   F   F
  7.3503749904341635  5.9412373711205984  7.4006224192904639   F   F   F
 10.2905249866078297  5.9412373711205984  7.4006224192904639   F   F   F
 13.2306749827814940  5.9412373711205984  7.4006224192904639   F   F   F
  5.8802999923473305  8.4874819587437127  7.4006224192904639   F   F   F
  8.8204499885209948  8.4874819587437127  7.4006224192904639   F   F   F
 10.2905249866078279  7.6387337628693404 12.2018672578713936   T   T   T
 13.2306749827814922  7.6387337628693404 12.2018672578713936   T   T   T
