 ----------------------------------------------------
    OOO  PPPP  EEEEE N   N M   M PPPP
   O   O P   P E     NN  N MM MM P   P
   O   O PPPP  EEEEE N N N M M M PPPP   -- VERSION
   O   O P     E     N  NN M   M P
    OOO  P     EEEEE N   N M   M P
 ----------------------------------------------------
 running   16 mpi-ranks, with    8 threads/rank
 distrk:  each k-point on   16 cores,    1 groups
 distr:  one band on    1 cores,   16 groups
 vasp.6.3.2 27Jun22 (build Oct 02 2025 09:19:44) complex                        
  
 POSCAR found type information on POSCAR Au
 POSCAR found :  1 types and      64 ions
 Reading from existing POTCAR
 scaLAPACK will be used
 Reading from existing POTCAR
 LDA part: xc-table for Pade appr. of Perdew
 POSCAR found type information on POSCAR Au
 POSCAR found :  1 types and      64 ions
 POSCAR found type information on POSCAR Au
 POSCAR found :  1 types and      64 ions
 -----------------------------------------------------------------------------
|                                                                             |
|           W    W    AA    RRRRR   N    N  II  N    N   GGGG   !!!           |
|           W    W   A  A   R    R  NN   N  II  NN   N  G    G  !!!           |
|           W    W  A    A  R    R  N N  N  II  N N  N  G       !!!           |
|           W WW W  AAAAAA  RRRRR   N  N N  II  N  N N  G  GGG   !            |
|           WW  WW  A    A  R   R   N   NN  II  N   NN  G    G                |
|           W    W  A    A  R    R  N    N  II  N    N   GGGG   !!!           |
|                                                                             |
|     Your reciprocal lattice and k-lattice belong to different lattice       |
|     classes:                                                                |
|                                                                             |
|        The reciprocal lattice is simple orthorhombic,                       |
|        whereas your k-lattice is simple monoclinic.                         |
|                                                                             |
|     Results are often still useful ...                                      |
|                                                                             |
 -----------------------------------------------------------------------------

 POSCAR, INCAR and KPOINTS ok, starting setup
 FFT: planning ... GRIDC
 FFT: planning ... GRID_SOFT
 FFT: planning ... GRID
 WAVECAR not read
 
 invBETA =   2.567980938600000E-002
 PBETA   =    19.4705495077618     
 ZBETA   =    38.9410990155237     
 
 alpha0_rot   =    587.209258857455     
 alpha_pol    =    5.97785463206492     
 invalpha_sic =   1.252992168182255E-003
 alpha_lin    =    593.187113489519     
 f_loc        =    3.89497294977035     
 alpha0_diel  =    2310.44776119403     
 
 alpha0_ion =    3072.55630941130     
 n_max      =   2.762135864009951E-003
 theta_b    =   0.436039376517672     
 LION       =  T
 
 entering main loop
       N       E                     dE             d eps       ncg     rms          rms(c)
  Solvation turned off during non-self-consistent phase (first NELMDL steps)
DAV:   1     0.518698280118E+04    0.51870E+04   -0.26183E+05  6048   0.124E+03
DAV:   2     0.279517818937E+03   -0.49075E+04   -0.45021E+04  8016   0.250E+02
DAV:   3    -0.196174837912E+03   -0.47569E+03   -0.44455E+03  6976   0.742E+01
DAV:   4    -0.210953172967E+03   -0.14778E+02   -0.14477E+02  7392   0.126E+01
DAV:   5    -0.211304415353E+03   -0.35124E+00   -0.34938E+00  7136   0.207E+00    0.551E+01
 Begin Solvation calculations
  rms_SCF =    1.91228347547035      tol =   0.191228347547035     
 Begin minimization
 Creating dielectric and ionic cavities
  area:      240.161403598307     
  volume:    3288.86334871937     
  A_cav:    0.211101873762912     
  qion_max:     4.88474595498114     
  Solving nonlinear dielectric/ionic screening model
  Starting outer loop
        iter                  A_solv                     rms
 resid(G=0) =  -3.008550379490771E-006
  NLPB:    0  -0.775263709359248E+04   0.960719409117746E+01
   LPB:       -0.775263709359248E+04   0.960719409117699E+01
   LPB:    0  -0.775263709359248E+04   0.960719578030173E+01  -0.362728E-07   0.000000E+00   0.829423E+02  -0.300855E-05
   LPB:    1  -0.375600235444836E+00   0.197050906805373E+01   0.999952E+00   0.000000E+00   0.153469E+03   0.288434E-22
   LPB:    2  -0.174991461824902E+00   0.269582456213704E+01   0.192535E-01   0.134398E-02   0.132646E+03   0.480053E-12
   LPB:    3  -0.131429971357647E+00   0.119099493338081E+01   0.855736E-02   0.488565E+00   0.130796E+03   0.484114E-12
   LPB:    4  -0.924660637701891E-01   0.427958778413785E+00   0.207317E-01   0.369203E+00   0.122090E+04   0.484960E-12
    LS:    0  -0.312933079230879E-01   0.775260580028456E+04   0.155050892550571E+05
 resid(G=0) =  -4.414556976511521E-004
  NLPB:    1  -0.312933079230879E-01   0.447347219938448E+00
   LPB:       -0.312933079230879E-01   0.447347002117512E+00
   LPB:    0  -0.312933067397877E-01   0.447804594512318E+00  -0.536090E-05   0.000000E+00   0.823473E+02  -0.441456E-03
   LPB:    1  -0.243943749464244E-01   0.356173261920290E+00   0.106760E-01   0.000000E+00   0.435231E+03  -0.275503E-20
   LPB:    2  -0.220950995540748E-01   0.472257389587610E+00   0.158298E-01   0.224771E+00   0.169502E+03  -0.303402E-15
   LPB:    3  -0.200805176226085E-01   0.372748586495330E+00   0.123773E-01   0.112058E+01   0.501677E+03  -0.133021E-15
   LPB:    4  -0.191881820727445E-01   0.294061219657923E+00   0.883348E-02   0.620639E+00   0.142334E+03  -0.835282E-15
   LPB:    5  -0.185806920120417E-01   0.767440710585728E-01   0.941177E-02   0.638957E+00   0.876567E+02  -0.286205E-14
   LPB:    6  -0.181097558200813E-01   0.272829286855803E-01   0.328099E-01   0.222377E+00   0.909807E+03  -0.448153E-14
    LS:    0  -0.229891259629434E-01   0.830418196014449E-02   0.263671042060114E-01
 resid(G=0) =  -9.880593753819943E-004
  NLPB:    2  -0.229891259629434E-01   0.778664590334085E-01
  Finished solving NLPB equations
 End minimization
 Ecorr=   2001.58649948188     
 A_corr=  0.188112747799969     
 Ecorr_band=  -2001.39838673408     
 End Solvation calculations
RMM:   6    -0.195953069574E+03    0.15351E+02   -0.42253E+01  6275   0.106E+01    0.383E+01
deltaQ =  -9.850508E-04
 Dsol_rc =      -0.00139304     -0.00404023     -0.26134623
 Dele =       0.00000000      0.00000000     -0.31291881
alpha =   6.000000E-01
DIPOLC =       0.00000000      0.00000000     -0.34455902
ZVAL =  -3.445590E+00
deltaQ =  -9.850508E-04
 Dsol_rc =      -0.00139304     -0.00404023     -0.26134623
 Dele =       0.00000000      0.00000000     -0.31291881
alpha =   6.000000E-01
DIPOLC =       0.00000000      0.00000000     -0.34455902
ZVAL =  -3.445590E+00
deltaQ =  -9.850508E-04
 Dsol_rc =      -0.00139304     -0.00404023     -0.26134623
 Dele =       0.00000000      0.00000000     -0.31291881
alpha =   6.000000E-01
DIPOLC =       0.00000000      0.00000000     -0.34455902
ZVAL =  -3.445590E+00
deltaQ =  -9.850508E-04
 Dsol_rc =      -0.00139304     -0.00404023     -0.26134623
 Dele =       0.00000000      0.00000000     -0.31291881
alpha =   6.000000E-01
DIPOLC =       0.00000000      0.00000000     -0.34455902
ZVAL =  -3.445590E+00
deltaQ =  -9.850508E-04
deltaQ =  -9.850508E-04
 Dsol_rc =      -0.00139304     -0.00404023     -0.26134623
 Dele =       0.00000000      0.00000000     -0.31291881
alpha =   6.000000E-01
DIPOLC =       0.00000000      0.00000000     -0.34455902
ZVAL =  -3.445590E+00
deltaQ =  -9.850508E-04
 Dsol_rc =      -0.00139304     -0.00404023     -0.26134623
 Dele =       0.00000000      0.00000000     -0.31291881
alpha =   6.000000E-01
DIPOLC =       0.00000000      0.00000000     -0.34455902
ZVAL =  -3.445590E+00
deltaQ =  -9.850508E-04
 Dsol_rc =      -0.00139304     -0.00404023     -0.26134623
 Dele =       0.00000000      0.00000000     -0.31291881
alpha =   6.000000E-01
DIPOLC =       0.00000000      0.00000000     -0.34455902
ZVAL =  -3.445590E+00
deltaQ =  -9.850508E-04
 Dsol_rc =      -0.00139304     -0.00404023     -0.26134623
 Dele =       0.00000000      0.00000000     -0.31291881
alpha =   6.000000E-01
DIPOLC =       0.00000000      0.00000000     -0.34455902
ZVAL =  -3.445590E+00
deltaQ =  -9.850508E-04
 Dsol_rc =      -0.00139304     -0.00404023     -0.26134623
 Dele =       0.00000000      0.00000000     -0.31291881
alpha =   6.000000E-01
DIPOLC =       0.00000000      0.00000000     -0.34455902
ZVAL =  -3.445590E+00
deltaQ =  -9.850508E-04
 Dsol_rc =      -0.00139304     -0.00404023     -0.26134623
 Dele =       0.00000000      0.00000000     -0.31291881
alpha =   6.000000E-01
DIPOLC =       0.00000000      0.00000000     -0.34455902
ZVAL =  -3.445590E+00
deltaQ =  -9.850508E-04
 Dsol_rc =      -0.00139304     -0.00404023     -0.26134623
 Dele =       0.00000000      0.00000000     -0.31291881
alpha =   6.000000E-01
DIPOLC =       0.00000000      0.00000000     -0.34455902
ZVAL =  -3.445590E+00
deltaQ =  -9.850508E-04
 Dsol_rc =      -0.00139304     -0.00404023     -0.26134623
 Dele =       0.00000000      0.00000000     -0.31291881
alpha =   6.000000E-01
DIPOLC =       0.00000000      0.00000000     -0.34455902
ZVAL =  -3.445590E+00
deltaQ =  -9.850508E-04
 Dsol_rc =      -0.00139304     -0.00404023     -0.26134623
 Dele =       0.00000000      0.00000000     -0.31291881
alpha =   6.000000E-01
DIPOLC =       0.00000000      0.00000000     -0.34455902
ZVAL =  -3.445590E+00
deltaQ =  -9.850508E-04
 Dsol_rc =      -0.00139304     -0.00404023     -0.26134623
 Dele =       0.00000000      0.00000000     -0.31291881
alpha =   6.000000E-01
DIPOLC =       0.00000000      0.00000000     -0.34455902
ZVAL =  -3.445590E+00
deltaQ =  -9.850508E-04
 Dsol_rc =      -0.00139304     -0.00404023     -0.26134623
 Dele =       0.00000000      0.00000000     -0.31291881
alpha =   6.000000E-01
DIPOLC =       0.00000000      0.00000000     -0.34455902
ZVAL =  -3.445590E+00
 Dsol_rc =      -0.00139304     -0.00404023     -0.26134623
 Dele =       0.00000000      0.00000000     -0.31291881
alpha =   6.000000E-01
DIPOLC =       0.00000000      0.00000000     -0.34455902
ZVAL =  -3.445590E+00
 Begin Solvation calculations
  rms_SCF =   0.865640270684062      tol =   8.656402706840624E-002
 Begin minimization
 Creating dielectric and ionic cavities
  area:      240.024302260291     
  volume:    3291.75059649869     
  A_cav:    0.210981361686795     
  qion_max:     4.87678342441256     
  Solving nonlinear dielectric/ionic screening model
  Starting outer loop
        iter                  A_solv                     rms
 resid(G=0) =  -9.901844707598368E-004
  NLPB:    0  -0.173806744652088E+01   0.309892407217681E+00
   LPB:       -0.173806744652088E+01   0.309890825268970E+00
   LPB:    0  -0.173806744060011E+01   0.308701183117835E+00  -0.119589E-04   0.000000E+00   0.827988E+02  -0.990184E-03
   LPB:    1  -0.783529238084133E+00   0.199519322618480E+01   0.538149E+00   0.000000E+00   0.515639E+02   0.683279E-19
   LPB:    2  -0.449982302729399E+00   0.435710654886010E+01   0.188158E-01   0.999409E+01   0.146531E+03   0.176352E-13
   LPB:    3  -0.276450064081642E+00   0.277659598217809E+01   0.114241E-01   0.856889E+00   0.235234E+03   0.191125E-13
   LPB:    4  -0.993154097582964E-01   0.339653650270889E+01   0.171406E-01   0.680330E+00   0.311906E+03   0.274558E-13
   LPB:    5  -0.618533608683478E-01   0.961000921569793E+00   0.519711E-02   0.697511E+00   0.302856E+03   0.297086E-13
   LPB:    6  -0.352644024986812E-01   0.346632244202163E+00   0.189112E-01   0.195053E+00   0.327114E+03   0.296411E-13
   LPB:    7  -0.268277358071303E-01   0.359137828407098E+00   0.204458E-01   0.293485E+00   0.819778E+03   0.349942E-13
   LPB:    8  -0.242233126874363E-01   0.119516296676733E+00   0.121602E-01   0.519043E+00   0.254797E+03   0.350396E-13
   LPB:    9  -0.232639678247495E-01   0.828487541609654E-01   0.185889E-01   0.240962E+00   0.904337E+03   0.369200E-13
   LPB:   10  -0.228816279079982E-01   0.723424975629311E-01   0.186193E-01   0.397892E+00   0.278631E+03   0.379841E-13
   LPB:   11  -0.227441960521937E-01   0.204305028449880E-01   0.167879E-01   0.398662E+00   0.145589E+03   0.392715E-13
    LS:    0  -0.241012267048565E-01   0.171396621981603E+01   0.343064650093729E+01
 resid(G=0) =   1.112961468376668E-007
  NLPB:    1  -0.241012267048565E-01   0.407781023894723E-01
  Finished solving NLPB equations
 End minimization
 Ecorr=   1948.65621523041     
 A_corr=  0.186880134981939     
 Ecorr_band=  -1948.46933509543     
 End Solvation calculations
RMM:   7    -0.195976082118E+03   -0.23013E-01   -0.10719E+01  6530   0.442E+00    0.151E+01
deltaQ =   3.287903E-06
 Dsol_rc =       0.00392367     -0.00405856      0.05319323
 Dele =       0.00000000      0.00000000      1.19986689
alpha =   1.877794E-01
DIPOLC =       0.00000000      0.00000000     -0.04455902
ZVAL =  -4.455902E-01
deltaQ =   3.287903E-06
 Dsol_rc =       0.00392367     -0.00405856      0.05319323
 Dele =       0.00000000      0.00000000      1.19986689
alpha =   1.877794E-01
DIPOLC =       0.00000000      0.00000000     -0.04455902
ZVAL =  -4.455902E-01
deltaQ =   3.287903E-06
deltaQ =   3.287903E-06
 Dsol_rc =       0.00392367     -0.00405856      0.05319323
 Dele =       0.00000000      0.00000000      1.19986689
alpha =   1.877794E-01
DIPOLC =       0.00000000      0.00000000     -0.04455902
ZVAL =  -4.455902E-01
deltaQ =   3.287903E-06
 Dsol_rc =       0.00392367     -0.00405856      0.05319323
 Dele =       0.00000000      0.00000000      1.19986689
alpha =   1.877794E-01
DIPOLC =       0.00000000      0.00000000     -0.04455902
ZVAL =  -4.455902E-01
deltaQ =   3.287903E-06
 Dsol_rc =       0.00392367     -0.00405856      0.05319323
 Dele =       0.00000000      0.00000000      1.19986689
alpha =   1.877794E-01
DIPOLC =       0.00000000      0.00000000     -0.04455902
ZVAL =  -4.455902E-01
deltaQ =   3.287903E-06
 Dsol_rc =       0.00392367     -0.00405856      0.05319323
 Dele =       0.00000000      0.00000000      1.19986689
alpha =   1.877794E-01
DIPOLC =       0.00000000      0.00000000     -0.04455902
ZVAL =  -4.455902E-01
deltaQ =   3.287903E-06
 Dsol_rc =       0.00392367     -0.00405856      0.05319323
 Dele =       0.00000000      0.00000000      1.19986689
alpha =   1.877794E-01
DIPOLC =       0.00000000      0.00000000     -0.04455902
ZVAL =  -4.455902E-01
deltaQ =   3.287903E-06
 Dsol_rc =       0.00392367     -0.00405856      0.05319323
 Dele =       0.00000000      0.00000000      1.19986689
alpha =   1.877794E-01
DIPOLC =       0.00000000      0.00000000     -0.04455902
ZVAL =  -4.455902E-01
deltaQ =   3.287903E-06
 Dsol_rc =       0.00392367     -0.00405856      0.05319323
 Dele =       0.00000000      0.00000000      1.19986689
alpha =   1.877794E-01
DIPOLC =       0.00000000      0.00000000     -0.04455902
ZVAL =  -4.455902E-01
deltaQ =   3.287903E-06
 Dsol_rc =       0.00392367     -0.00405856      0.05319323
 Dele =       0.00000000      0.00000000      1.19986689
alpha =   1.877794E-01
DIPOLC =       0.00000000      0.00000000     -0.04455902
ZVAL =  -4.455902E-01
deltaQ =   3.287903E-06
 Dsol_rc =       0.00392367     -0.00405856      0.05319323
 Dele =       0.00000000      0.00000000      1.19986689
alpha =   1.877794E-01
DIPOLC =       0.00000000      0.00000000     -0.04455902
ZVAL =  -4.455902E-01
deltaQ =   3.287903E-06
 Dsol_rc =       0.00392367     -0.00405856      0.05319323
 Dele =       0.00000000      0.00000000      1.19986689
alpha =   1.877794E-01
DIPOLC =       0.00000000      0.00000000     -0.04455902
ZVAL =  -4.455902E-01
deltaQ =   3.287903E-06
 Dsol_rc =       0.00392367     -0.00405856      0.05319323
 Dele =       0.00000000      0.00000000      1.19986689
alpha =   1.877794E-01
DIPOLC =       0.00000000      0.00000000     -0.04455902
ZVAL =  -4.455902E-01
deltaQ =   3.287903E-06
 Dsol_rc =       0.00392367     -0.00405856      0.05319323
 Dele =       0.00000000      0.00000000      1.19986689
alpha =   1.877794E-01
DIPOLC =       0.00000000      0.00000000     -0.04455902
ZVAL =  -4.455902E-01
deltaQ =   3.287903E-06
 Dsol_rc =       0.00392367     -0.00405856      0.05319323
 Dele =       0.00000000      0.00000000      1.19986689
alpha =   1.877794E-01
DIPOLC =       0.00000000      0.00000000     -0.04455902
ZVAL =  -4.455902E-01
 Dsol_rc =       0.00392367     -0.00405856      0.05319323
 Dele =       0.00000000      0.00000000      1.19986689
alpha =   1.877794E-01
DIPOLC =       0.00000000      0.00000000     -0.04455902
ZVAL =  -4.455902E-01
 Begin Solvation calculations
  rms_SCF =   0.865640270684062      tol =   8.656402706840624E-002
 Begin minimization
 Creating dielectric and ionic cavities
  area:      240.012888337459     
  volume:    3289.11859498915     
  A_cav:    0.210971328848626     
  qion_max:     4.88440758261551     
  Solving nonlinear dielectric/ionic screening model
  Starting outer loop
        iter                  A_solv                     rms
 resid(G=0) =   7.187727120538770E-006
  NLPB:    0  -0.564255768793486E+00   0.565870805042694E+00
   LPB:       -0.564255768793486E+00   0.565870804997045E+00
   LPB:    0  -0.564255768793175E+00   0.565860191897040E+00   0.866724E-07   0.000000E+00   0.829298E+02   0.718773E-05
   LPB:    1  -0.465347666168035E+00   0.505707581186358E+01   0.177169E+00   0.000000E+00   0.133555E+02  -0.533217E-21
   LPB:    2  -0.286770101497454E+00   0.131249982251150E+01   0.160847E-01   0.198869E+02   0.720093E+01   0.131737E-14
   LPB:    3  -0.107976262744754E+00   0.102530341998076E+01   0.236837E-01   0.679970E+00   0.672877E+01   0.173600E-13
   LPB:    4  -0.657318563813525E-01   0.136246082033140E+01   0.146953E-01   0.380791E+00   0.405534E+02   0.379778E-13
   LPB:    5  -0.530595351567000E-01   0.115831952100458E+01   0.790226E-02   0.557848E+00   0.821418E+02   0.300593E-13
   LPB:    6  -0.431130090067890E-01   0.275761616462744E+00   0.956929E-02   0.648167E+00   0.784035E+02   0.271628E-13
   LPB:    7  -0.402688044284967E-01   0.155322946679682E+00   0.173251E-01   0.157941E+00   0.305985E+03   0.244476E-13
   LPB:    8  -0.388807899786822E-01   0.181209581094996E+00   0.186984E-01   0.452171E+00   0.510920E+03   0.232333E-13
   LPB:    9  -0.379478209712383E-01   0.545859590484932E-01   0.177080E-01   0.709758E+00   0.130921E+03   0.225087E-13
    LS:    0  -0.384064061640644E-01   0.525849362629422E+00   0.105261589564423E+01
 resid(G=0) =  -1.203224745528416E-005
  NLPB:    1  -0.384064061640644E-01   0.557427577669798E-01
  Finished solving NLPB equations
 End minimization
 Ecorr=   2314.73760573953     
 A_corr=  0.172564922684562     
 Ecorr_band=  -2314.56504081685     
 End Solvation calculations
RMM:   8    -0.197930587219E+03   -0.19545E+01   -0.49430E+00  6815   0.279E+00    0.840E+00
deltaQ =  -8.854268E-06
 Dsol_rc =      -0.02708185     -0.00614232      0.72331884
 Dele =       0.00000000      0.00000000     -0.25350230
alpha =   6.000000E-01
DIPOLC =       0.00000000      0.00000000      0.26406632
ZVAL =  -2.640663E+00
deltaQ =  -8.854268E-06
 Dsol_rc =      -0.02708185     -0.00614232      0.72331884
 Dele =       0.00000000      0.00000000     -0.25350230
alpha =   6.000000E-01
DIPOLC =       0.00000000      0.00000000      0.26406632
ZVAL =  -2.640663E+00
deltaQ =  -8.854268E-06
deltaQ =  -8.854268E-06
 Dsol_rc =      -0.02708185     -0.00614232      0.72331884
 Dele =       0.00000000      0.00000000     -0.25350230
alpha =   6.000000E-01
DIPOLC =       0.00000000      0.00000000      0.26406632
ZVAL =  -2.640663E+00
deltaQ =  -8.854268E-06
 Dsol_rc =      -0.02708185     -0.00614232      0.72331884
 Dele =       0.00000000      0.00000000     -0.25350230
alpha =   6.000000E-01
DIPOLC =       0.00000000      0.00000000      0.26406632
ZVAL =  -2.640663E+00
deltaQ =  -8.854268E-06
 Dsol_rc =      -0.02708185     -0.00614232      0.72331884
 Dele =       0.00000000      0.00000000     -0.25350230
alpha =   6.000000E-01
DIPOLC =       0.00000000      0.00000000      0.26406632
ZVAL =  -2.640663E+00
deltaQ =  -8.854268E-06
 Dsol_rc =      -0.02708185     -0.00614232      0.72331884
 Dele =       0.00000000      0.00000000     -0.25350230
alpha =   6.000000E-01
DIPOLC =       0.00000000      0.00000000      0.26406632
ZVAL =  -2.640663E+00
deltaQ =  -8.854268E-06
 Dsol_rc =      -0.02708185     -0.00614232      0.72331884
 Dele =       0.00000000      0.00000000     -0.25350230
alpha =   6.000000E-01
DIPOLC =       0.00000000      0.00000000      0.26406632
ZVAL =  -2.640663E+00
deltaQ =  -8.854268E-06
 Dsol_rc =      -0.02708185     -0.00614232      0.72331884
 Dele =       0.00000000      0.00000000     -0.25350230
alpha =   6.000000E-01
DIPOLC =       0.00000000      0.00000000      0.26406632
ZVAL =  -2.640663E+00
deltaQ =  -8.854268E-06
 Dsol_rc =      -0.02708185     -0.00614232      0.72331884
 Dele =       0.00000000      0.00000000     -0.25350230
alpha =   6.000000E-01
DIPOLC =       0.00000000      0.00000000      0.26406632
ZVAL =  -2.640663E+00
deltaQ =  -8.854268E-06
 Dsol_rc =      -0.02708185     -0.00614232      0.72331884
 Dele =       0.00000000      0.00000000     -0.25350230
alpha =   6.000000E-01
DIPOLC =       0.00000000      0.00000000      0.26406632
ZVAL =  -2.640663E+00
deltaQ =  -8.854268E-06
 Dsol_rc =      -0.02708185     -0.00614232      0.72331884
 Dele =       0.00000000      0.00000000     -0.25350230
alpha =   6.000000E-01
DIPOLC =       0.00000000      0.00000000      0.26406632
ZVAL =  -2.640663E+00
deltaQ =  -8.854268E-06
 Dsol_rc =      -0.02708185     -0.00614232      0.72331884
 Dele =       0.00000000      0.00000000     -0.25350230
alpha =   6.000000E-01
DIPOLC =       0.00000000      0.00000000      0.26406632
ZVAL =  -2.640663E+00
deltaQ =  -8.854268E-06
 Dsol_rc =      -0.02708185     -0.00614232      0.72331884
 Dele =       0.00000000      0.00000000     -0.25350230
alpha =   6.000000E-01
DIPOLC =       0.00000000      0.00000000      0.26406632
ZVAL =  -2.640663E+00
deltaQ =  -8.854268E-06
 Dsol_rc =      -0.02708185     -0.00614232      0.72331884
 Dele =       0.00000000      0.00000000     -0.25350230
alpha =   6.000000E-01
DIPOLC =       0.00000000      0.00000000      0.26406632
ZVAL =  -2.640663E+00
deltaQ =  -8.854268E-06
 Dsol_rc =      -0.02708185     -0.00614232      0.72331884
 Dele =       0.00000000      0.00000000     -0.25350230
alpha =   6.000000E-01
DIPOLC =       0.00000000      0.00000000      0.26406632
ZVAL =  -2.640663E+00
 Dsol_rc =      -0.02708185     -0.00614232      0.72331884
 Dele =       0.00000000      0.00000000     -0.25350230
alpha =   6.000000E-01
DIPOLC =       0.00000000      0.00000000      0.26406632
ZVAL =  -2.640663E+00
 Begin Solvation calculations
  rms_SCF =   0.865640270684062      tol =   8.656402706840624E-002
 Begin minimization
 Creating dielectric and ionic cavities
  area:      239.970557880338     
  volume:    3290.88086724415     
  A_cav:    0.210934120376817     
  qion_max:     4.87934783552224     
  Solving nonlinear dielectric/ionic screening model
  Starting outer loop
        iter                  A_solv                     rms
 resid(G=0) =   1.685649245574548E-004
  NLPB:    0  -0.368170190837686E+00   0.626766573635580E+00
   LPB:       -0.368170190837686E+00   0.626766550968342E+00
   LPB:    0  -0.368170190666124E+00   0.626958731520072E+00   0.203556E-05   0.000000E+00   0.828103E+02   0.168565E-03
   LPB:    1  -0.345138040380587E+00   0.242901335111997E+01   0.576324E-01   0.000000E+00   0.269478E+02  -0.123977E-21
   LPB:    2  -0.274910606388850E+00   0.132345484528453E+01   0.249113E-01   0.705413E+01   0.113782E+02  -0.302169E-14
   LPB:    3  -0.139293272085805E+00   0.145067097048223E+01   0.301277E-01   0.159676E+01   0.533818E+01  -0.187240E-13
   LPB:    4  -0.850639269678456E-01   0.933838573057112E+00   0.167154E-01   0.720721E+00   0.908118E+01  -0.539126E-13
   LPB:    5  -0.689364908202503E-01   0.961934782795717E+00   0.114439E-01   0.434383E+00   0.297610E+02  -0.710336E-13
   LPB:    6  -0.620652963677110E-01   0.830335274718372E+00   0.856317E-02   0.569387E+00   0.711765E+02  -0.763787E-13
   LPB:    7  -0.519726660081896E-01   0.275653071791514E+00   0.150771E-01   0.834239E+00   0.571495E+02  -0.757782E-13
   LPB:    8  -0.475442815320103E-01   0.267744639207251E+00   0.248651E-01   0.266052E+00   0.377921E+02  -0.755948E-13
   LPB:    9  -0.432577738414060E-01   0.118276160760594E+00   0.227978E-01   0.105574E+01   0.771141E+02  -0.808705E-13
   LPB:   10  -0.407738165510678E-01   0.118620872897396E+00   0.264305E-01   0.499836E+00   0.852508E+02  -0.773399E-13
   LPB:   11  -0.398723561976656E-01   0.103311067190133E+00   0.170106E-01   0.563882E+00   0.385886E+03  -0.769018E-13
   LPB:   12  -0.394296075907176E-01   0.105436452231506E+00   0.153453E-01   0.544447E+00   0.558653E+03  -0.773109E-13
   LPB:   13  -0.392163220080159E-01   0.204574645390692E+00   0.139694E-01   0.529176E+00   0.158665E+03  -0.772939E-13
   LPB:   14  -0.389599927416661E-01   0.355563312970798E-01   0.978215E-02   0.171625E+01   0.109629E+03  -0.777139E-13
    LS:    0  -0.390668652933947E-01   0.329103325544291E+00   0.658420396191241E+00
 resid(G=0) =  -4.292671941820251E-005
  NLPB:    1  -0.390668652933947E-01   0.398306203370090E-01
  Finished solving NLPB equations
 End minimization
 Ecorr=   1846.23847804774     
 A_corr=  0.171867255083422     
 Ecorr_band=  -1846.06661079266     
 End Solvation calculations
RMM:   9    -0.195524935374E+03    0.24057E+01   -0.16187E+00  6804   0.163E+00    0.327E+00
deltaQ =  -3.973825E-05
 Dsol_rc =      -0.13920636     -0.00528560     -0.71723509
 Dele =       0.00000000      0.00000000     -0.03862213
alpha =   2.941397E-01
DIPOLC =       0.00000000      0.00000000     -0.03593368
ZVAL =  -3.593368E-01
deltaQ =  -3.973825E-05
 Dsol_rc =      -0.13920636     -0.00528560     -0.71723509
 Dele =       0.00000000      0.00000000     -0.03862213
alpha =   2.941397E-01
DIPOLC =       0.00000000      0.00000000     -0.03593368
ZVAL =  -3.593368E-01
deltaQ =  -3.973825E-05
 Dsol_rc =      -0.13920636     -0.00528560     -0.71723509
 Dele =       0.00000000      0.00000000     -0.03862213
alpha =   2.941397E-01
DIPOLC =       0.00000000      0.00000000     -0.03593368
ZVAL =  -3.593368E-01
deltaQ =  -3.973825E-05
 Dsol_rc =      -0.13920636     -0.00528560     -0.71723509
 Dele =       0.00000000      0.00000000     -0.03862213
alpha =   2.941397E-01
DIPOLC =       0.00000000      0.00000000     -0.03593368
ZVAL =  -3.593368E-01
deltaQ =  -3.973825E-05
 Dsol_rc =      -0.13920636     -0.00528560     -0.71723509
 Dele =       0.00000000      0.00000000     -0.03862213
alpha =   2.941397E-01
DIPOLC =       0.00000000      0.00000000     -0.03593368
ZVAL =  -3.593368E-01
deltaQ =  -3.973825E-05
 Dsol_rc =      -0.13920636     -0.00528560     -0.71723509
 Dele =       0.00000000      0.00000000     -0.03862213
alpha =   2.941397E-01
DIPOLC =       0.00000000      0.00000000     -0.03593368
ZVAL =  -3.593368E-01
deltaQ =  -3.973825E-05
 Dsol_rc =      -0.13920636     -0.00528560     -0.71723509
 Dele =       0.00000000      0.00000000     -0.03862213
alpha =   2.941397E-01
DIPOLC =       0.00000000      0.00000000     -0.03593368
ZVAL =  -3.593368E-01
deltaQ =  -3.973825E-05
deltaQ =  -3.973825E-05
 Dsol_rc =      -0.13920636     -0.00528560     -0.71723509
 Dele =       0.00000000      0.00000000     -0.03862213
alpha =   2.941397E-01
DIPOLC =       0.00000000      0.00000000     -0.03593368
ZVAL =  -3.593368E-01
deltaQ =  -3.973825E-05
 Dsol_rc =      -0.13920636     -0.00528560     -0.71723509
 Dele =       0.00000000      0.00000000     -0.03862213
alpha =   2.941397E-01
DIPOLC =       0.00000000      0.00000000     -0.03593368
ZVAL =  -3.593368E-01
deltaQ =  -3.973825E-05
 Dsol_rc =      -0.13920636     -0.00528560     -0.71723509
 Dele =       0.00000000      0.00000000     -0.03862213
alpha =   2.941397E-01
DIPOLC =       0.00000000      0.00000000     -0.03593368
ZVAL =  -3.593368E-01
deltaQ =  -3.973825E-05
 Dsol_rc =      -0.13920636     -0.00528560     -0.71723509
 Dele =       0.00000000      0.00000000     -0.03862213
alpha =   2.941397E-01
DIPOLC =       0.00000000      0.00000000     -0.03593368
ZVAL =  -3.593368E-01
deltaQ =  -3.973825E-05
 Dsol_rc =      -0.13920636     -0.00528560     -0.71723509
 Dele =       0.00000000      0.00000000     -0.03862213
alpha =   2.941397E-01
DIPOLC =       0.00000000      0.00000000     -0.03593368
ZVAL =  -3.593368E-01
deltaQ =  -3.973825E-05
 Dsol_rc =      -0.13920636     -0.00528560     -0.71723509
 Dele =       0.00000000      0.00000000     -0.03862213
alpha =   2.941397E-01
DIPOLC =       0.00000000      0.00000000     -0.03593368
ZVAL =  -3.593368E-01
deltaQ =  -3.973825E-05
 Dsol_rc =      -0.13920636     -0.00528560     -0.71723509
 Dele =       0.00000000      0.00000000     -0.03862213
alpha =   2.941397E-01
DIPOLC =       0.00000000      0.00000000     -0.03593368
ZVAL =  -3.593368E-01
deltaQ =  -3.973825E-05
 Dsol_rc =      -0.13920636     -0.00528560     -0.71723509
 Dele =       0.00000000      0.00000000     -0.03862213
alpha =   2.941397E-01
DIPOLC =       0.00000000      0.00000000     -0.03593368
ZVAL =  -3.593368E-01
 Dsol_rc =      -0.13920636     -0.00528560     -0.71723509
 Dele =       0.00000000      0.00000000     -0.03862213
alpha =   2.941397E-01
DIPOLC =       0.00000000      0.00000000     -0.03593368
ZVAL =  -3.593368E-01
 Begin Solvation calculations
  rms_SCF =   0.865640270684062      tol =   8.656402706840624E-002
 Begin minimization
 Creating dielectric and ionic cavities
  area:      239.966536613132     
  volume:    3290.69050073696     
  A_cav:    0.210930585682943     
  qion_max:     4.87987798919965     
  Solving nonlinear dielectric/ionic screening model
  Starting outer loop
        iter                  A_solv                     rms
 resid(G=0) =  -2.839595639418336E-005
  NLPB:    0  -0.165261916759288E+00   0.214206551525128E+00
   LPB:       -0.165261916759288E+00   0.214206549642995E+00
   LPB:    0  -0.165261916754421E+00   0.214222892836390E+00  -0.342785E-06   0.000000E+00   0.828390E+02  -0.283960E-04
   LPB:    1  -0.145715471681201E+00   0.218742024789445E+01   0.131652E+00   0.000000E+00   0.441316E+02  -0.130671E-20
   LPB:    2  -0.107563832682404E+00   0.161095051187505E+01   0.162802E-01   0.157839E+02   0.484304E+02   0.766727E-15
   LPB:    3  -0.722819061008996E-01   0.206435488027080E+01   0.130714E-01   0.115180E+01   0.608045E+02   0.651627E-14
   LPB:    4  -0.437988756818593E-01   0.581824675527692E+00   0.883890E-02   0.119387E+01   0.667742E+02   0.143222E-13
   LPB:    5  -0.353731765767984E-01   0.237950951753223E+00   0.136276E-01   0.191866E+00   0.981698E+02   0.185279E-13
   LPB:    6  -0.326515606420663E-01   0.185131891647868E+00   0.175481E-01   0.250848E+00   0.346595E+03   0.187134E-13
   LPB:    7  -0.306796888712680E-01   0.965083928793215E-01   0.190639E-01   0.666915E+00   0.422467E+03   0.179577E-13
   LPB:    8  -0.298792103730149E-01   0.577194090038008E-01   0.195996E-01   0.394853E+00   0.901554E+03   0.165891E-13
   LPB:    9  -0.291855524712889E-01   0.761713191066767E-01   0.308482E-01   0.550572E+00   0.875543E+03   0.165515E-13
   LPB:   10  -0.288985381913618E-01   0.134984627785095E+00   0.172351E-01   0.740584E+00   0.338191E+03   0.162729E-13
   LPB:   11  -0.287719733422046E-01   0.116730683925928E+00   0.858980E-02   0.884790E+00   0.345882E+03   0.170279E-13
   LPB:   12  -0.286403149591733E-01   0.321015551420057E-01   0.114590E-01   0.779782E+00   0.203960E+03   0.168658E-13
   LPB:   13  -0.285702707874716E-01   0.396029147292642E-01   0.218876E-01   0.278529E+00   0.810808E+03   0.161020E-13
   LPB:   14  -0.285150125776056E-01   0.233689183707512E-01   0.183687E-01   0.940038E+00   0.289939E+03   0.160898E-13
   LPB:   15  -0.284646758330479E-01   0.121222766739086E-01   0.286086E-01   0.584883E+00   0.447690E+03   0.161745E-13
    LS:    0  -0.287429059859323E-01   0.136519010773356E+00   0.273594481852508E+00
 resid(G=0) =   2.584514056765513E-006
  NLPB:    1  -0.287429059859323E-01   0.124035330405098E-01
  Finished solving NLPB equations
 End minimization
 Ecorr=   1969.10664572867     
 A_corr=  0.182187679697011     
 Ecorr_band=  -1968.92445804897     
 End Solvation calculations
RMM:  10    -0.195275170559E+03    0.24976E+00   -0.17232E-01  6670   0.593E-01    0.843E-01
deltaQ =   5.805019E-06
 Dsol_rc =      -0.00702531     -0.00553299     -0.21367173
 Dele =       0.00000000      0.00000000      0.00896097
alpha =   6.000000E-01
DIPOLC =       0.00000000      0.00000000     -0.13719993
ZVAL =  -1.371999E+00
deltaQ =   5.805019E-06
 Dsol_rc =      -0.00702531     -0.00553299     -0.21367173
 Dele =       0.00000000      0.00000000      0.00896097
alpha =   6.000000E-01
DIPOLC =       0.00000000      0.00000000     -0.13719993
ZVAL =  -1.371999E+00
deltaQ =   5.805019E-06
deltaQ =   5.805019E-06
 Dsol_rc =      -0.00702531     -0.00553299     -0.21367173
 Dele =       0.00000000      0.00000000      0.00896097
alpha =   6.000000E-01
DIPOLC =       0.00000000      0.00000000     -0.13719993
ZVAL =  -1.371999E+00
deltaQ =   5.805019E-06
 Dsol_rc =      -0.00702531     -0.00553299     -0.21367173
 Dele =       0.00000000      0.00000000      0.00896097
alpha =   6.000000E-01
DIPOLC =       0.00000000      0.00000000     -0.13719993
ZVAL =  -1.371999E+00
deltaQ =   5.805019E-06
 Dsol_rc =      -0.00702531     -0.00553299     -0.21367173
 Dele =       0.00000000      0.00000000      0.00896097
alpha =   6.000000E-01
DIPOLC =       0.00000000      0.00000000     -0.13719993
ZVAL =  -1.371999E+00
deltaQ =   5.805019E-06
 Dsol_rc =      -0.00702531     -0.00553299     -0.21367173
 Dele =       0.00000000      0.00000000      0.00896097
alpha =   6.000000E-01
DIPOLC =       0.00000000      0.00000000     -0.13719993
ZVAL =  -1.371999E+00
deltaQ =   5.805019E-06
 Dsol_rc =      -0.00702531     -0.00553299     -0.21367173
 Dele =       0.00000000      0.00000000      0.00896097
alpha =   6.000000E-01
DIPOLC =       0.00000000      0.00000000     -0.13719993
ZVAL =  -1.371999E+00
deltaQ =   5.805019E-06
 Dsol_rc =      -0.00702531     -0.00553299     -0.21367173
 Dele =       0.00000000      0.00000000      0.00896097
alpha =   6.000000E-01
DIPOLC =       0.00000000      0.00000000     -0.13719993
ZVAL =  -1.371999E+00
deltaQ =   5.805019E-06
 Dsol_rc =      -0.00702531     -0.00553299     -0.21367173
 Dele =       0.00000000      0.00000000      0.00896097
alpha =   6.000000E-01
DIPOLC =       0.00000000      0.00000000     -0.13719993
ZVAL =  -1.371999E+00
deltaQ =   5.805019E-06
 Dsol_rc =      -0.00702531     -0.00553299     -0.21367173
 Dele =       0.00000000      0.00000000      0.00896097
alpha =   6.000000E-01
DIPOLC =       0.00000000      0.00000000     -0.13719993
ZVAL =  -1.371999E+00
deltaQ =   5.805019E-06
 Dsol_rc =      -0.00702531     -0.00553299     -0.21367173
 Dele =       0.00000000      0.00000000      0.00896097
alpha =   6.000000E-01
DIPOLC =       0.00000000      0.00000000     -0.13719993
ZVAL =  -1.371999E+00
deltaQ =   5.805019E-06
 Dsol_rc =      -0.00702531     -0.00553299     -0.21367173
 Dele =       0.00000000      0.00000000      0.00896097
alpha =   6.000000E-01
DIPOLC =       0.00000000      0.00000000     -0.13719993
ZVAL =  -1.371999E+00
deltaQ =   5.805019E-06
 Dsol_rc =      -0.00702531     -0.00553299     -0.21367173
 Dele =       0.00000000      0.00000000      0.00896097
alpha =   6.000000E-01
DIPOLC =       0.00000000      0.00000000     -0.13719993
ZVAL =  -1.371999E+00
deltaQ =   5.805019E-06
 Dsol_rc =      -0.00702531     -0.00553299     -0.21367173
 Dele =       0.00000000      0.00000000      0.00896097
alpha =   6.000000E-01
DIPOLC =       0.00000000      0.00000000     -0.13719993
ZVAL =  -1.371999E+00
deltaQ =   5.805019E-06
 Dsol_rc =      -0.00702531     -0.00553299     -0.21367173
 Dele =       0.00000000      0.00000000      0.00896097
alpha =   6.000000E-01
DIPOLC =       0.00000000      0.00000000     -0.13719993
ZVAL =  -1.371999E+00
 Dsol_rc =      -0.00702531     -0.00553299     -0.21367173
 Dele =       0.00000000      0.00000000      0.00896097
alpha =   6.000000E-01
DIPOLC =       0.00000000      0.00000000     -0.13719993
ZVAL =  -1.371999E+00
 Begin Solvation calculations
  rms_SCF =   0.574965572897215      tol =   5.749655728972154E-002
 Begin minimization
 Creating dielectric and ionic cavities
  area:      239.964042946475     
  volume:    3290.44601786588     
  A_cav:    0.210928393749951     
  qion_max:     4.88057145894694     
  Solving nonlinear dielectric/ionic screening model
  Starting outer loop
        iter                  A_solv                     rms
 resid(G=0) =   6.754983128038592E-006
  NLPB:    0  -0.436646705727235E-01   0.659265418055236E-01
   LPB:       -0.436646705727235E-01   0.659265414594581E-01
   LPB:    0  -0.436646705724481E-01   0.659251443198500E-01   0.815185E-07   0.000000E+00   0.828644E+02   0.675498E-05
   LPB:    1  -0.420230583789064E-01   0.512178700010992E+00   0.920277E-01   0.000000E+00   0.882970E+02  -0.392509E-21
   LPB:    2  -0.386362705609006E-01   0.447376962093861E+00   0.217757E-01   0.871895E+01   0.112522E+03   0.234608E-15
   LPB:    3  -0.333237270286556E-01   0.675622687140471E+00   0.176388E-01   0.193650E+01   0.666344E+02   0.195870E-14
   LPB:    4  -0.313849127081956E-01   0.291495438012855E+00   0.667861E-02   0.963864E+00   0.117538E+03   0.473421E-14
   LPB:    5  -0.298455931540756E-01   0.179901123354593E+00   0.139531E-01   0.380021E+00   0.921372E+02   0.680999E-14
   LPB:    6  -0.292212415533227E-01   0.108381596089746E+00   0.157013E-01   0.360442E+00   0.188198E+03   0.932192E-14
   LPB:    7  -0.287604122572121E-01   0.543557406423809E-01   0.196689E-01   0.589206E+00   0.142704E+03   0.960513E-14
   LPB:    8  -0.286047481893403E-01   0.400742716537376E-01   0.187923E-01   0.353548E+00   0.148301E+03   0.102791E-13
   LPB:    9  -0.284831038711317E-01   0.250467764042025E-01   0.237537E-01   0.618233E+00   0.448289E+03   0.108128E-13
   LPB:   10  -0.284025055116771E-01   0.290036816403248E-01   0.272585E-01   0.577382E+00   0.241692E+03   0.114339E-13
   LPB:   11  -0.283470668865518E-01   0.273673194361393E-01   0.255731E-01   0.733171E+00   0.190242E+03   0.122109E-13
   LPB:   12  -0.283191569814075E-01   0.393283629777671E-01   0.150803E-01   0.853729E+00   0.274182E+03   0.126600E-13
   LPB:   13  -0.283064137580286E-01   0.383011585211566E-01   0.912834E-02   0.754290E+00   0.273165E+03   0.128651E-13
   LPB:   14  -0.282922077237316E-01   0.121589032135128E-01   0.117282E-01   0.867669E+00   0.270920E+03   0.130366E-13
   LPB:   15  -0.282813824518766E-01   0.958762364591344E-02   0.228740E-01   0.390710E+00   0.902558E+03   0.132667E-13
   LPB:   16  -0.282696851807083E-01   0.486784181107998E-02   0.326784E-01   0.756357E+00   0.325176E+03   0.135047E-13
    LS:    0  -0.282947790939195E-01   0.153698914788040E-01   0.307899707839924E-01
 resid(G=0) =   2.008895501410954E-007
  NLPB:    1  -0.282947790939195E-01   0.558631065958707E-02
  Finished solving NLPB equations
 End minimization
 Ecorr=   1999.70470476406     
 A_corr=  0.182633614656032     
 Ecorr_band=  -1999.52207114940     
 End Solvation calculations
RMM:  11    -0.195277356236E+03   -0.21857E-02   -0.34949E-02  6900   0.214E-01    0.575E-01
deltaQ =   3.390866E-06
 Dsol_rc =      -0.03252481     -0.00569444     -0.06897057
 Dele =       0.00000000      0.00000000      0.01897706
alpha =   6.000000E-01
DIPOLC =       0.00000000      0.00000000     -0.08487607
ZVAL =  -8.487607E-01
deltaQ =   3.390866E-06
 Dsol_rc =      -0.03252481     -0.00569444     -0.06897057
 Dele =       0.00000000      0.00000000      0.01897706
alpha =   6.000000E-01
DIPOLC =       0.00000000      0.00000000     -0.08487607
ZVAL =  -8.487607E-01
deltaQ =   3.390866E-06
 Dsol_rc =      -0.03252481     -0.00569444     -0.06897057
 Dele =       0.00000000      0.00000000      0.01897706
alpha =   6.000000E-01
DIPOLC =       0.00000000      0.00000000     -0.08487607
ZVAL =  -8.487607E-01
deltaQ =   3.390866E-06
 Dsol_rc =      -0.03252481     -0.00569444     -0.06897057
 Dele =       0.00000000      0.00000000      0.01897706
alpha =   6.000000E-01
DIPOLC =       0.00000000      0.00000000     -0.08487607
ZVAL =  -8.487607E-01
deltaQ =   3.390866E-06
 Dsol_rc =      -0.03252481     -0.00569444     -0.06897057
 Dele =       0.00000000      0.00000000      0.01897706
alpha =   6.000000E-01
DIPOLC =       0.00000000      0.00000000     -0.08487607
ZVAL =  -8.487607E-01
deltaQ =   3.390866E-06
 Dsol_rc =      -0.03252481     -0.00569444     -0.06897057
 Dele =       0.00000000      0.00000000      0.01897706
alpha =   6.000000E-01
DIPOLC =       0.00000000      0.00000000     -0.08487607
ZVAL =  -8.487607E-01
deltaQ =   3.390866E-06
 Dsol_rc =      -0.03252481     -0.00569444     -0.06897057
 Dele =       0.00000000      0.00000000      0.01897706
alpha =   6.000000E-01
DIPOLC =       0.00000000      0.00000000     -0.08487607
ZVAL =  -8.487607E-01
deltaQ =   3.390866E-06
deltaQ =   3.390866E-06
 Dsol_rc =      -0.03252481     -0.00569444     -0.06897057
 Dele =       0.00000000      0.00000000      0.01897706
alpha =   6.000000E-01
DIPOLC =       0.00000000      0.00000000     -0.08487607
ZVAL =  -8.487607E-01
deltaQ =   3.390866E-06
 Dsol_rc =      -0.03252481     -0.00569444     -0.06897057
 Dele =       0.00000000      0.00000000      0.01897706
alpha =   6.000000E-01
DIPOLC =       0.00000000      0.00000000     -0.08487607
ZVAL =  -8.487607E-01
deltaQ =   3.390866E-06
 Dsol_rc =      -0.03252481     -0.00569444     -0.06897057
 Dele =       0.00000000      0.00000000      0.01897706
alpha =   6.000000E-01
DIPOLC =       0.00000000      0.00000000     -0.08487607
ZVAL =  -8.487607E-01
deltaQ =   3.390866E-06
 Dsol_rc =      -0.03252481     -0.00569444     -0.06897057
 Dele =       0.00000000      0.00000000      0.01897706
alpha =   6.000000E-01
DIPOLC =       0.00000000      0.00000000     -0.08487607
ZVAL =  -8.487607E-01
deltaQ =   3.390866E-06
 Dsol_rc =      -0.03252481     -0.00569444     -0.06897057
 Dele =       0.00000000      0.00000000      0.01897706
alpha =   6.000000E-01
DIPOLC =       0.00000000      0.00000000     -0.08487607
ZVAL =  -8.487607E-01
deltaQ =   3.390866E-06
 Dsol_rc =      -0.03252481     -0.00569444     -0.06897057
 Dele =       0.00000000      0.00000000      0.01897706
alpha =   6.000000E-01
DIPOLC =       0.00000000      0.00000000     -0.08487607
ZVAL =  -8.487607E-01
deltaQ =   3.390866E-06
 Dsol_rc =      -0.03252481     -0.00569444     -0.06897057
 Dele =       0.00000000      0.00000000      0.01897706
alpha =   6.000000E-01
DIPOLC =       0.00000000      0.00000000     -0.08487607
ZVAL =  -8.487607E-01
deltaQ =   3.390866E-06
 Dsol_rc =      -0.03252481     -0.00569444     -0.06897057
 Dele =       0.00000000      0.00000000      0.01897706
alpha =   6.000000E-01
DIPOLC =       0.00000000      0.00000000     -0.08487607
ZVAL =  -8.487607E-01
 Dsol_rc =      -0.03252481     -0.00569444     -0.06897057
 Dele =       0.00000000      0.00000000      0.01897706
alpha =   6.000000E-01
DIPOLC =       0.00000000      0.00000000     -0.08487607
ZVAL =  -8.487607E-01
 Begin Solvation calculations
  rms_SCF =   0.574965572897215      tol =   5.749655728972154E-002
 Begin minimization
 Creating dielectric and ionic cavities
  area:      239.962475179297     
  volume:    3290.35560743372     
  A_cav:    0.210927015682602     
  qion_max:     4.88083016450172     
  Solving nonlinear dielectric/ionic screening model
  Starting outer loop
        iter                  A_solv                     rms
 resid(G=0) =  -2.827462686151898E-007
  NLPB:    0  -0.327114955747581E-01   0.383760810834710E-01
   LPB:       -0.327114955747581E-01   0.383760810824293E-01
   LPB:    0  -0.327114955747576E-01   0.383762910729546E-01  -0.341193E-08   0.000000E+00   0.828699E+02  -0.282746E-06
   LPB:    1  -0.319318399396846E-01   0.318650013563169E+00   0.174145E+00   0.000000E+00   0.306874E+02  -0.117174E-22
   LPB:    2  -0.311522934049230E-01   0.311808151938422E+00   0.123808E-01   0.140638E+02   0.416126E+02  -0.185749E-15
   LPB:    3  -0.297733850472232E-01   0.255156820034362E+00   0.147433E-01   0.148542E+01   0.268145E+02  -0.112805E-14
   LPB:    4  -0.291331105582465E-01   0.151752627798524E+00   0.108082E-01   0.633389E+00   0.610594E+02  -0.297756E-14
   LPB:    5  -0.288082848512868E-01   0.694950632592902E-01   0.116402E-01   0.471062E+00   0.121091E+03  -0.355103E-14
   LPB:    6  -0.287059124905854E-01   0.425256628413122E-01   0.149510E-01   0.245371E+00   0.137206E+03  -0.389654E-14
   LPB:    7  -0.286511183705567E-01   0.251999923975069E-01   0.172488E-01   0.463942E+00   0.284696E+03  -0.381423E-14
   LPB:    8  -0.286162634477200E-01   0.901602171383743E-02   0.197347E-01   0.555977E+00   0.228242E+03  -0.389265E-14
   LPB:    9  -0.286053164991822E-01   0.806321993866913E-02   0.208401E-01   0.297413E+00   0.821133E+03  -0.432823E-14
   LPB:   10  -0.285986540835287E-01   0.814480131906455E-02   0.257801E-01   0.491988E+00   0.320301E+03  -0.439208E-14
   LPB:   11  -0.285941659783431E-01   0.678897504195038E-02   0.207176E-01   0.838256E+00   0.555102E+03  -0.454019E-14
   LPB:   12  -0.285910315543967E-01   0.156159820965499E-01   0.206869E-01   0.699421E+00   0.435726E+03  -0.462495E-14
   LPB:   13  -0.285892323032670E-01   0.125979965193746E-01   0.875052E-02   0.135705E+01   0.253523E+03  -0.467122E-14
   LPB:   14  -0.285875087704659E-01   0.415779602776238E-02   0.114819E-01   0.730042E+00   0.272497E+03  -0.471481E-14
   LPB:   15  -0.285861613912519E-01   0.262030641652121E-02   0.225835E-01   0.397459E+00   0.124812E+04  -0.476275E-14
    LS:    0  -0.285864087477877E-01   0.412508682697040E-02   0.825066836701108E-02
 resid(G=0) =   2.120238293473629E-008
  NLPB:    1  -0.285864087477877E-01   0.264261699198599E-02
  Finished solving NLPB equations
 End minimization
 Ecorr=   2001.10652704333     
 A_corr=  0.182340606934814     
 Ecorr_band=  -2000.92418643640     
 End Solvation calculations
RMM:  12    -0.195274751068E+03    0.26052E-02   -0.87597E-03  6818   0.102E-01    0.457E-01
deltaQ =   3.203657E-06
 Dsol_rc =      -0.00520026     -0.00554415     -0.08878922
 Dele =       0.00000000      0.00000000     -0.03522307
alpha =   6.000000E-01
DIPOLC =       0.00000000      0.00000000     -0.10835780
ZVAL =  -1.083578E+00
deltaQ =   3.203657E-06
deltaQ =   3.203657E-06
 Dsol_rc =      -0.00520026     -0.00554415     -0.08878922
 Dele =       0.00000000      0.00000000     -0.03522307
alpha =   6.000000E-01
DIPOLC =       0.00000000      0.00000000     -0.10835780
ZVAL =  -1.083578E+00
deltaQ =   3.203657E-06
 Dsol_rc =      -0.00520026     -0.00554415     -0.08878922
 Dele =       0.00000000      0.00000000     -0.03522307
alpha =   6.000000E-01
DIPOLC =       0.00000000      0.00000000     -0.10835780
ZVAL =  -1.083578E+00
deltaQ =   3.203657E-06
 Dsol_rc =      -0.00520026     -0.00554415     -0.08878922
 Dele =       0.00000000      0.00000000     -0.03522307
alpha =   6.000000E-01
DIPOLC =       0.00000000      0.00000000     -0.10835780
ZVAL =  -1.083578E+00
deltaQ =   3.203657E-06
 Dsol_rc =      -0.00520026     -0.00554415     -0.08878922
 Dele =       0.00000000      0.00000000     -0.03522307
alpha =   6.000000E-01
DIPOLC =       0.00000000      0.00000000     -0.10835780
ZVAL =  -1.083578E+00
deltaQ =   3.203657E-06
 Dsol_rc =      -0.00520026     -0.00554415     -0.08878922
 Dele =       0.00000000      0.00000000     -0.03522307
alpha =   6.000000E-01
DIPOLC =       0.00000000      0.00000000     -0.10835780
ZVAL =  -1.083578E+00
deltaQ =   3.203657E-06
 Dsol_rc =      -0.00520026     -0.00554415     -0.08878922
 Dele =       0.00000000      0.00000000     -0.03522307
alpha =   6.000000E-01
DIPOLC =       0.00000000      0.00000000     -0.10835780
ZVAL =  -1.083578E+00
deltaQ =   3.203657E-06
 Dsol_rc =      -0.00520026     -0.00554415     -0.08878922
 Dele =       0.00000000      0.00000000     -0.03522307
alpha =   6.000000E-01
DIPOLC =       0.00000000      0.00000000     -0.10835780
ZVAL =  -1.083578E+00
deltaQ =   3.203657E-06
 Dsol_rc =      -0.00520026     -0.00554415     -0.08878922
 Dele =       0.00000000      0.00000000     -0.03522307
alpha =   6.000000E-01
DIPOLC =       0.00000000      0.00000000     -0.10835780
ZVAL =  -1.083578E+00
deltaQ =   3.203657E-06
 Dsol_rc =      -0.00520026     -0.00554415     -0.08878922
 Dele =       0.00000000      0.00000000     -0.03522307
alpha =   6.000000E-01
DIPOLC =       0.00000000      0.00000000     -0.10835780
ZVAL =  -1.083578E+00
deltaQ =   3.203657E-06
 Dsol_rc =      -0.00520026     -0.00554415     -0.08878922
 Dele =       0.00000000      0.00000000     -0.03522307
alpha =   6.000000E-01
DIPOLC =       0.00000000      0.00000000     -0.10835780
ZVAL =  -1.083578E+00
deltaQ =   3.203657E-06
 Dsol_rc =      -0.00520026     -0.00554415     -0.08878922
 Dele =       0.00000000      0.00000000     -0.03522307
alpha =   6.000000E-01
DIPOLC =       0.00000000      0.00000000     -0.10835780
ZVAL =  -1.083578E+00
deltaQ =   3.203657E-06
 Dsol_rc =      -0.00520026     -0.00554415     -0.08878922
 Dele =       0.00000000      0.00000000     -0.03522307
alpha =   6.000000E-01
DIPOLC =       0.00000000      0.00000000     -0.10835780
ZVAL =  -1.083578E+00
deltaQ =   3.203657E-06
 Dsol_rc =      -0.00520026     -0.00554415     -0.08878922
 Dele =       0.00000000      0.00000000     -0.03522307
alpha =   6.000000E-01
DIPOLC =       0.00000000      0.00000000     -0.10835780
ZVAL =  -1.083578E+00
deltaQ =   3.203657E-06
 Dsol_rc =      -0.00520026     -0.00554415     -0.08878922
 Dele =       0.00000000      0.00000000     -0.03522307
alpha =   6.000000E-01
DIPOLC =       0.00000000      0.00000000     -0.10835780
ZVAL =  -1.083578E+00
 Dsol_rc =      -0.00520026     -0.00554415     -0.08878922
 Dele =       0.00000000      0.00000000     -0.03522307
alpha =   6.000000E-01
DIPOLC =       0.00000000      0.00000000     -0.10835780
ZVAL =  -1.083578E+00
 Begin Solvation calculations
  rms_SCF =   0.574965572897215      tol =   5.749655728972154E-002
 Begin minimization
 Creating dielectric and ionic cavities
  area:      239.955445497438     
  volume:    3290.15106666678     
  A_cav:    0.210920836592248     
  qion_max:     4.88141446399110     
  Solving nonlinear dielectric/ionic screening model
  Starting outer loop
        iter                  A_solv                     rms
 resid(G=0) =   3.526606017382821E-007
  NLPB:    0  -0.307230748133025E-01   0.194636446989911E-01
   LPB:       -0.307230748133025E-01   0.194636446957962E-01
   LPB:    0  -0.307230748133018E-01   0.194640834207039E-01   0.425507E-08   0.000000E+00   0.828800E+02   0.352661E-06
   LPB:    1  -0.304611254773462E-01   0.151032493504388E+00   0.211458E+00   0.000000E+00   0.232124E+02  -0.433198E-23
   LPB:    2  -0.301495932238606E-01   0.211458074862435E+00   0.164721E-01   0.152672E+02   0.203620E+02   0.129501E-14
   LPB:    3  -0.297861425475689E-01   0.129844175378933E+00   0.103005E-01   0.186568E+01   0.153086E+02   0.268840E-14
   LPB:    4  -0.296433762420940E-01   0.769771963499082E-01   0.959173E-02   0.421832E+00   0.243988E+02   0.419566E-14
   LPB:    5  -0.295961798964687E-01   0.304286970522602E-01   0.100484E-01   0.315561E+00   0.448496E+02   0.464560E-14
   LPB:    6  -0.295767940566186E-01   0.119047717010425E-01   0.147333E-01   0.280138E+00   0.233599E+03   0.473302E-14
   LPB:    7  -0.295670895253376E-01   0.118456994109069E-01   0.188896E-01   0.390451E+00   0.491443E+03   0.505429E-14
   LPB:    8  -0.295610195480408E-01   0.659824588015613E-02   0.193659E-01   0.610096E+00   0.177929E+03   0.513308E-14
   LPB:    9  -0.295582147060245E-01   0.439560092545102E-02   0.191734E-01   0.466722E+00   0.349680E+03   0.503079E-14
   LPB:   10  -0.295564934841407E-01   0.370025487213062E-02   0.280036E-01   0.420159E+00   0.190168E+03   0.499973E-14
   LPB:   11  -0.295555005427989E-01   0.270206767251326E-02   0.240653E-01   0.671289E+00   0.874066E+03   0.498149E-14
   LPB:   12  -0.295550863055271E-01   0.444191294141275E-02   0.170955E-01   0.587267E+00   0.448146E+03   0.501358E-14
   LPB:   13  -0.295548922197605E-01   0.506829097635286E-02   0.101707E-01   0.787547E+00   0.362845E+03   0.502734E-14
   LPB:   14  -0.295547163947578E-01   0.222753176530263E-02   0.993880E-02   0.927050E+00   0.265349E+03   0.503053E-14
   LPB:   15  -0.295545618994442E-01   0.115519236383058E-02   0.179357E-01   0.486912E+00   0.255361E+03   0.503336E-14
    LS:    0  -0.295545627396720E-01   0.116851207363059E-02   0.233702582771641E-02
 resid(G=0) =  -6.938124314364955E-010
  NLPB:    1  -0.295545627396720E-01   0.115544146316225E-02
  Finished solving NLPB equations
 End minimization
 Ecorr=   1988.97039778940     
 A_corr=  0.181366273852576     
 Ecorr_band=  -1988.78903151555     
 End Solvation calculations
RMM:  13    -0.195271844706E+03    0.29064E-02   -0.26439E-03  6875   0.609E-02    0.113E-01
deltaQ =   3.176372E-06
 Dsol_rc =      -0.01102722     -0.00561143     -0.11183140
 Dele =       0.00000000      0.00000000     -0.03968208
alpha =   6.000000E-01
DIPOLC =       0.00000000      0.00000000     -0.13425121
ZVAL =  -1.342512E+00
deltaQ =   3.176372E-06
 Dsol_rc =      -0.01102722     -0.00561143     -0.11183140
 Dele =       0.00000000      0.00000000     -0.03968208
alpha =   6.000000E-01
DIPOLC =       0.00000000      0.00000000     -0.13425121
ZVAL =  -1.342512E+00
deltaQ =   3.176372E-06
deltaQ =   3.176372E-06
 Dsol_rc =      -0.01102722     -0.00561143     -0.11183140
 Dele =       0.00000000      0.00000000     -0.03968208
alpha =   6.000000E-01
DIPOLC =       0.00000000      0.00000000     -0.13425121
ZVAL =  -1.342512E+00
deltaQ =   3.176372E-06
 Dsol_rc =      -0.01102722     -0.00561143     -0.11183140
 Dele =       0.00000000      0.00000000     -0.03968208
alpha =   6.000000E-01
DIPOLC =       0.00000000      0.00000000     -0.13425121
ZVAL =  -1.342512E+00
deltaQ =   3.176372E-06
 Dsol_rc =      -0.01102722     -0.00561143     -0.11183140
 Dele =       0.00000000      0.00000000     -0.03968208
alpha =   6.000000E-01
DIPOLC =       0.00000000      0.00000000     -0.13425121
ZVAL =  -1.342512E+00
deltaQ =   3.176372E-06
 Dsol_rc =      -0.01102722     -0.00561143     -0.11183140
 Dele =       0.00000000      0.00000000     -0.03968208
alpha =   6.000000E-01
DIPOLC =       0.00000000      0.00000000     -0.13425121
ZVAL =  -1.342512E+00
deltaQ =   3.176372E-06
 Dsol_rc =      -0.01102722     -0.00561143     -0.11183140
 Dele =       0.00000000      0.00000000     -0.03968208
alpha =   6.000000E-01
DIPOLC =       0.00000000      0.00000000     -0.13425121
ZVAL =  -1.342512E+00
deltaQ =   3.176372E-06
 Dsol_rc =      -0.01102722     -0.00561143     -0.11183140
 Dele =       0.00000000      0.00000000     -0.03968208
alpha =   6.000000E-01
DIPOLC =       0.00000000      0.00000000     -0.13425121
ZVAL =  -1.342512E+00
deltaQ =   3.176372E-06
 Dsol_rc =      -0.01102722     -0.00561143     -0.11183140
 Dele =       0.00000000      0.00000000     -0.03968208
alpha =   6.000000E-01
DIPOLC =       0.00000000      0.00000000     -0.13425121
ZVAL =  -1.342512E+00
deltaQ =   3.176372E-06
 Dsol_rc =      -0.01102722     -0.00561143     -0.11183140
 Dele =       0.00000000      0.00000000     -0.03968208
alpha =   6.000000E-01
DIPOLC =       0.00000000      0.00000000     -0.13425121
ZVAL =  -1.342512E+00
deltaQ =   3.176372E-06
 Dsol_rc =      -0.01102722     -0.00561143     -0.11183140
 Dele =       0.00000000      0.00000000     -0.03968208
alpha =   6.000000E-01
DIPOLC =       0.00000000      0.00000000     -0.13425121
ZVAL =  -1.342512E+00
deltaQ =   3.176372E-06
 Dsol_rc =      -0.01102722     -0.00561143     -0.11183140
 Dele =       0.00000000      0.00000000     -0.03968208
alpha =   6.000000E-01
DIPOLC =       0.00000000      0.00000000     -0.13425121
ZVAL =  -1.342512E+00
deltaQ =   3.176372E-06
 Dsol_rc =      -0.01102722     -0.00561143     -0.11183140
 Dele =       0.00000000      0.00000000     -0.03968208
alpha =   6.000000E-01
DIPOLC =       0.00000000      0.00000000     -0.13425121
ZVAL =  -1.342512E+00
deltaQ =   3.176372E-06
 Dsol_rc =      -0.01102722     -0.00561143     -0.11183140
 Dele =       0.00000000      0.00000000     -0.03968208
alpha =   6.000000E-01
DIPOLC =       0.00000000      0.00000000     -0.13425121
ZVAL =  -1.342512E+00
deltaQ =   3.176372E-06
 Dsol_rc =      -0.01102722     -0.00561143     -0.11183140
 Dele =       0.00000000      0.00000000     -0.03968208
alpha =   6.000000E-01
DIPOLC =       0.00000000      0.00000000     -0.13425121
ZVAL =  -1.342512E+00
 Dsol_rc =      -0.01102722     -0.00561143     -0.11183140
 Dele =       0.00000000      0.00000000     -0.03968208
alpha =   6.000000E-01
DIPOLC =       0.00000000      0.00000000     -0.13425121
ZVAL =  -1.342512E+00
 Begin Solvation calculations
  rms_SCF =   6.914163711491600E-002 tol =   6.914163711491600E-003
 Begin minimization
 Creating dielectric and ionic cavities
  area:      239.951518389757     
  volume:    3289.98031849365     
  A_cav:    0.210917384664597     
  qion_max:     4.88190794026638     
  Solving nonlinear dielectric/ionic screening model
  Starting outer loop
        iter                  A_solv                     rms
 resid(G=0) =   3.933645388441312E-007
  NLPB:    0  -0.311255319583037E-01   0.111419874971759E-01
   LPB:       -0.311255319583037E-01   0.111419874902321E-01
   LPB:    0  -0.311255319583028E-01   0.111420341188915E-01   0.474571E-08   0.000000E+00   0.828884E+02   0.393365E-06
   LPB:    1  -0.307723927949195E-01   0.280997438694274E+00   0.346742E+00   0.000000E+00   0.473118E+02   0.855622E-23
   LPB:    2  -0.303204320049119E-01   0.573156956353800E-01   0.126305E-01   0.351351E+02   0.695314E+02   0.294724E-16
   LPB:    3  -0.301566006762967E-01   0.529273198346568E-01   0.142216E-01   0.321935E+00   0.186019E+03   0.209246E-15
   LPB:    4  -0.301424431840264E-01   0.323362699290768E-01   0.619069E-02   0.198517E+00   0.259682E+03   0.345996E-15
   LPB:    5  -0.301334795351164E-01   0.128219992673759E-01   0.962196E-02   0.407356E+00   0.313298E+03   0.354620E-15
   LPB:    6  -0.301292099593029E-01   0.564263101477711E-02   0.143547E-01   0.319279E+00   0.538495E+03   0.360541E-15
   LPB:    7  -0.301273313655296E-01   0.384745203693063E-02   0.169569E-01   0.372472E+00   0.663416E+03   0.360887E-15
   LPB:    8  -0.301262954819177E-01   0.216910297310986E-02   0.231853E-01   0.403285E+00   0.308375E+03   0.369493E-15
   LPB:    9  -0.301258369213204E-01   0.182972117949835E-02   0.252963E-01   0.405735E+00   0.532893E+03   0.376848E-15
   LPB:   10  -0.301255627287671E-01   0.176943320637136E-02   0.231442E-01   0.653541E+00   0.228024E+03   0.392598E-15
   LPB:   11  -0.301253444740382E-01   0.161257145596263E-02   0.226331E-01   0.813968E+00   0.583024E+03   0.392663E-15
   LPB:   12  -0.301251654922645E-01   0.133931575154561E-02   0.218345E-01   0.850051E+00   0.598166E+03   0.378412E-15
   LPB:   13  -0.301250722132234E-01   0.131767125090950E-02   0.188796E-01   0.602734E+00   0.185085E+03   0.354820E-15
   LPB:   14  -0.301250157680751E-01   0.217330905763011E-02   0.193067E-01   0.591735E+00   0.225849E+03   0.339626E-15
   LPB:   15  -0.301249895938798E-01   0.142137685369552E-02   0.764241E-02   0.117145E+01   0.276865E+03   0.348044E-15
   LPB:   16  -0.301249322433767E-01   0.285605211375883E-03   0.236552E-01   0.707892E+00   0.514947E+03   0.351394E-15
    LS:    0  -0.301249336878016E-01   0.100059827050218E-02   0.200119942985391E-02
 resid(G=0) =  -1.710112361290643E-010
  NLPB:    1  -0.301249336878016E-01   0.285423659431297E-03
  Finished solving NLPB equations
 End minimization
 Ecorr=   1991.16372025847     
 A_corr=  0.180792450976795     
 Ecorr_band=  -1990.98292780749     
 End Solvation calculations
RMM:  14    -0.195272769013E+03   -0.92431E-03   -0.91285E-04  7127   0.338E-02    0.435E-02
deltaQ =   3.179628E-06
 Dsol_rc =      -0.00680505     -0.00566004     -0.09432131
 Dele =       0.00000000      0.00000000     -0.03645262
alpha =   6.000000E-01
DIPOLC =       0.00000000      0.00000000     -0.13216484
ZVAL =  -1.321648E+00
deltaQ =   3.179628E-06
deltaQ =   3.179628E-06
 Dsol_rc =      -0.00680505     -0.00566004     -0.09432131
 Dele =       0.00000000      0.00000000     -0.03645262
alpha =   6.000000E-01
DIPOLC =       0.00000000      0.00000000     -0.13216484
ZVAL =  -1.321648E+00
deltaQ =   3.179628E-06
 Dsol_rc =      -0.00680505     -0.00566004     -0.09432131
 Dele =       0.00000000      0.00000000     -0.03645262
alpha =   6.000000E-01
DIPOLC =       0.00000000      0.00000000     -0.13216484
ZVAL =  -1.321648E+00
deltaQ =   3.179628E-06
 Dsol_rc =      -0.00680505     -0.00566004     -0.09432131
 Dele =       0.00000000      0.00000000     -0.03645262
alpha =   6.000000E-01
DIPOLC =       0.00000000      0.00000000     -0.13216484
ZVAL =  -1.321648E+00
deltaQ =   3.179628E-06
 Dsol_rc =      -0.00680505     -0.00566004     -0.09432131
 Dele =       0.00000000      0.00000000     -0.03645262
alpha =   6.000000E-01
DIPOLC =       0.00000000      0.00000000     -0.13216484
ZVAL =  -1.321648E+00
deltaQ =   3.179628E-06
 Dsol_rc =      -0.00680505     -0.00566004     -0.09432131
 Dele =       0.00000000      0.00000000     -0.03645262
alpha =   6.000000E-01
DIPOLC =       0.00000000      0.00000000     -0.13216484
ZVAL =  -1.321648E+00
deltaQ =   3.179628E-06
 Dsol_rc =      -0.00680505     -0.00566004     -0.09432131
 Dele =       0.00000000      0.00000000     -0.03645262
alpha =   6.000000E-01
DIPOLC =       0.00000000      0.00000000     -0.13216484
ZVAL =  -1.321648E+00
deltaQ =   3.179628E-06
 Dsol_rc =      -0.00680505     -0.00566004     -0.09432131
 Dele =       0.00000000      0.00000000     -0.03645262
alpha =   6.000000E-01
DIPOLC =       0.00000000      0.00000000     -0.13216484
ZVAL =  -1.321648E+00
deltaQ =   3.179628E-06
 Dsol_rc =      -0.00680505     -0.00566004     -0.09432131
 Dele =       0.00000000      0.00000000     -0.03645262
alpha =   6.000000E-01
DIPOLC =       0.00000000      0.00000000     -0.13216484
ZVAL =  -1.321648E+00
deltaQ =   3.179628E-06
 Dsol_rc =      -0.00680505     -0.00566004     -0.09432131
 Dele =       0.00000000      0.00000000     -0.03645262
alpha =   6.000000E-01
DIPOLC =       0.00000000      0.00000000     -0.13216484
ZVAL =  -1.321648E+00
deltaQ =   3.179628E-06
 Dsol_rc =      -0.00680505     -0.00566004     -0.09432131
 Dele =       0.00000000      0.00000000     -0.03645262
alpha =   6.000000E-01
DIPOLC =       0.00000000      0.00000000     -0.13216484
ZVAL =  -1.321648E+00
deltaQ =   3.179628E-06
 Dsol_rc =      -0.00680505     -0.00566004     -0.09432131
 Dele =       0.00000000      0.00000000     -0.03645262
alpha =   6.000000E-01
DIPOLC =       0.00000000      0.00000000     -0.13216484
ZVAL =  -1.321648E+00
deltaQ =   3.179628E-06
 Dsol_rc =      -0.00680505     -0.00566004     -0.09432131
 Dele =       0.00000000      0.00000000     -0.03645262
alpha =   6.000000E-01
DIPOLC =       0.00000000      0.00000000     -0.13216484
ZVAL =  -1.321648E+00
deltaQ =   3.179628E-06
 Dsol_rc =      -0.00680505     -0.00566004     -0.09432131
 Dele =       0.00000000      0.00000000     -0.03645262
alpha =   6.000000E-01
DIPOLC =       0.00000000      0.00000000     -0.13216484
ZVAL =  -1.321648E+00
deltaQ =   3.179628E-06
 Dsol_rc =      -0.00680505     -0.00566004     -0.09432131
 Dele =       0.00000000      0.00000000     -0.03645262
alpha =   6.000000E-01
DIPOLC =       0.00000000      0.00000000     -0.13216484
ZVAL =  -1.321648E+00
 Dsol_rc =      -0.00680505     -0.00566004     -0.09432131
 Dele =       0.00000000      0.00000000     -0.03645262
alpha =   6.000000E-01
DIPOLC =       0.00000000      0.00000000     -0.13216484
ZVAL =  -1.321648E+00
 Begin Solvation calculations
  rms_SCF =   6.914163711491600E-002 tol =   6.914163711491600E-003
 Begin minimization
 Creating dielectric and ionic cavities
  area:      239.951313149223     
  volume:    3289.95611441573     
  A_cav:    0.210917204258167     
  qion_max:     4.88197885701639     
  Solving nonlinear dielectric/ionic screening model
  Starting outer loop
        iter                  A_solv                     rms
 resid(G=0) =  -3.100321159359190E-008
  NLPB:    0  -0.302195046441549E-01   0.300794435986535E-02
   LPB:       -0.302195046441549E-01   0.300794435970557E-02
   LPB:    0  -0.302195046441549E-01   0.300797147365098E-02  -0.374030E-09   0.000000E+00   0.828896E+02  -0.310032E-07
   LPB:    1  -0.302183556459958E-01   0.133735610991746E-01   0.849751E-01   0.000000E+00   0.302991E+02   0.120362E-23
   LPB:    2  -0.302169833110811E-01   0.116284293443052E-01   0.114597E-01   0.885646E+01   0.280036E+02   0.165328E-16
   LPB:    3  -0.302128970734228E-01   0.147420544058587E-01   0.248354E-01   0.137393E+01   0.948913E+01   0.410936E-16
   LPB:    4  -0.302104940661914E-01   0.107516156105541E-01   0.120080E-01   0.121627E+01   0.155804E+02   0.110930E-15
   LPB:    5  -0.302089209969990E-01   0.496830579514594E-02   0.136173E-01   0.577264E+00   0.232407E+02   0.140484E-15
   LPB:    6  -0.302084669896205E-01   0.227019706662901E-02   0.122446E-01   0.320967E+00   0.874680E+02   0.170808E-15
   LPB:    7  -0.302082470114487E-01   0.149750190080862E-02   0.195385E-01   0.303647E+00   0.119326E+03   0.181039E-15
   LPB:    8  -0.302081252614962E-01   0.887870943584960E-03   0.173747E-01   0.622391E+00   0.128389E+03   0.196411E-15
   LPB:    9  -0.302080647126071E-01   0.943382525374208E-03   0.244434E-01   0.353502E+00   0.251612E+03   0.211315E-15
   LPB:   10  -0.302080281180570E-01   0.411316462406572E-03   0.219234E-01   0.673853E+00   0.162408E+03   0.211531E-15
   LPB:   11  -0.302080109867741E-01   0.324095685914564E-03   0.207236E-01   0.495240E+00   0.682832E+03   0.205255E-15
   LPB:   12  -0.302080017940998E-01   0.329218080378899E-03   0.199876E-01   0.556362E+00   0.719530E+03   0.202038E-15
   LPB:   13  -0.302079962612836E-01   0.281820135671684E-03   0.175470E-01   0.685583E+00   0.662340E+03   0.200132E-15
    LS:    0  -0.302079962455194E-01   0.115083986354583E-04   0.230167657433831E-04
 resid(G=0) =   2.170622718923560E-011
  NLPB:    1  -0.302079962455194E-01   0.281836564551958E-03
  Finished solving NLPB equations
 End minimization
 Ecorr=   1991.79592985245     
 A_corr=  0.180709208012647     
 Ecorr_band=  -1991.61522064444     
 End Solvation calculations
RMM:  15    -0.195272923607E+03   -0.15459E-03   -0.17906E-04  7249   0.149E-02    0.442E-02
deltaQ =   3.181138E-06
 Dsol_rc =      -0.01287565     -0.00566207     -0.09337622
 Dele =       0.00000000      0.00000000     -0.03395967
alpha =   6.000000E-01
DIPOLC =       0.00000000      0.00000000     -0.12926747
ZVAL =  -1.292675E+00
deltaQ =   3.181138E-06
 Dsol_rc =      -0.01287565     -0.00566207     -0.09337622
 Dele =       0.00000000      0.00000000     -0.03395967
alpha =   6.000000E-01
DIPOLC =       0.00000000      0.00000000     -0.12926747
ZVAL =  -1.292675E+00
deltaQ =   3.181138E-06
 Dsol_rc =      -0.01287565     -0.00566207     -0.09337622
 Dele =       0.00000000      0.00000000     -0.03395967
alpha =   6.000000E-01
DIPOLC =       0.00000000      0.00000000     -0.12926747
ZVAL =  -1.292675E+00
deltaQ =   3.181138E-06
deltaQ =   3.181138E-06
 Dsol_rc =      -0.01287565     -0.00566207     -0.09337622
 Dele =       0.00000000      0.00000000     -0.03395967
alpha =   6.000000E-01
DIPOLC =       0.00000000      0.00000000     -0.12926747
ZVAL =  -1.292675E+00
deltaQ =   3.181138E-06
 Dsol_rc =      -0.01287565     -0.00566207     -0.09337622
 Dele =       0.00000000      0.00000000     -0.03395967
alpha =   6.000000E-01
DIPOLC =       0.00000000      0.00000000     -0.12926747
ZVAL =  -1.292675E+00
deltaQ =   3.181138E-06
 Dsol_rc =      -0.01287565     -0.00566207     -0.09337622
 Dele =       0.00000000      0.00000000     -0.03395967
alpha =   6.000000E-01
DIPOLC =       0.00000000      0.00000000     -0.12926747
ZVAL =  -1.292675E+00
deltaQ =   3.181138E-06
 Dsol_rc =      -0.01287565     -0.00566207     -0.09337622
 Dele =       0.00000000      0.00000000     -0.03395967
alpha =   6.000000E-01
DIPOLC =       0.00000000      0.00000000     -0.12926747
ZVAL =  -1.292675E+00
deltaQ =   3.181138E-06
 Dsol_rc =      -0.01287565     -0.00566207     -0.09337622
 Dele =       0.00000000      0.00000000     -0.03395967
alpha =   6.000000E-01
DIPOLC =       0.00000000      0.00000000     -0.12926747
ZVAL =  -1.292675E+00
deltaQ =   3.181138E-06
 Dsol_rc =      -0.01287565     -0.00566207     -0.09337622
 Dele =       0.00000000      0.00000000     -0.03395967
alpha =   6.000000E-01
DIPOLC =       0.00000000      0.00000000     -0.12926747
ZVAL =  -1.292675E+00
deltaQ =   3.181138E-06
 Dsol_rc =      -0.01287565     -0.00566207     -0.09337622
 Dele =       0.00000000      0.00000000     -0.03395967
alpha =   6.000000E-01
DIPOLC =       0.00000000      0.00000000     -0.12926747
ZVAL =  -1.292675E+00
deltaQ =   3.181138E-06
 Dsol_rc =      -0.01287565     -0.00566207     -0.09337622
 Dele =       0.00000000      0.00000000     -0.03395967
alpha =   6.000000E-01
DIPOLC =       0.00000000      0.00000000     -0.12926747
ZVAL =  -1.292675E+00
deltaQ =   3.181138E-06
 Dsol_rc =      -0.01287565     -0.00566207     -0.09337622
 Dele =       0.00000000      0.00000000     -0.03395967
alpha =   6.000000E-01
DIPOLC =       0.00000000      0.00000000     -0.12926747
ZVAL =  -1.292675E+00
deltaQ =   3.181138E-06
 Dsol_rc =      -0.01287565     -0.00566207     -0.09337622
 Dele =       0.00000000      0.00000000     -0.03395967
alpha =   6.000000E-01
DIPOLC =       0.00000000      0.00000000     -0.12926747
ZVAL =  -1.292675E+00
deltaQ =   3.181138E-06
 Dsol_rc =      -0.01287565     -0.00566207     -0.09337622
 Dele =       0.00000000      0.00000000     -0.03395967
alpha =   6.000000E-01
DIPOLC =       0.00000000      0.00000000     -0.12926747
ZVAL =  -1.292675E+00
deltaQ =   3.181138E-06
 Dsol_rc =      -0.01287565     -0.00566207     -0.09337622
 Dele =       0.00000000      0.00000000     -0.03395967
alpha =   6.000000E-01
DIPOLC =       0.00000000      0.00000000     -0.12926747
ZVAL =  -1.292675E+00
 Dsol_rc =      -0.01287565     -0.00566207     -0.09337622
 Dele =       0.00000000      0.00000000     -0.03395967
alpha =   6.000000E-01
DIPOLC =       0.00000000      0.00000000     -0.12926747
ZVAL =  -1.292675E+00
 Begin Solvation calculations
  rms_SCF =   6.914163711491600E-002 tol =   6.914163711491600E-003
 Begin minimization
 Creating dielectric and ionic cavities
  area:      239.951152498470     
  volume:    3289.93606410589     
  A_cav:    0.210917063046155     
  qion_max:     4.88203751001353     
  Solving nonlinear dielectric/ionic screening model
  Starting outer loop
        iter                  A_solv                     rms
 resid(G=0) =  -3.102999060896200E-008
  NLPB:    0  -0.303093270668355E-01   0.273456438799298E-02
   LPB:       -0.303093270668355E-01   0.273456438781693E-02
   LPB:    0  -0.303093270668355E-01   0.273458892431997E-02  -0.374349E-09   0.000000E+00   0.828906E+02  -0.310300E-07
   LPB:    1  -0.303066593189701E-01   0.214284577847324E-01   0.164940E+00   0.000000E+00   0.232170E+02  -0.809179E-24
   LPB:    2  -0.303037524648087E-01   0.162964284651193E-01   0.101463E-01   0.177132E+02   0.253385E+02   0.229499E-16
   LPB:    3  -0.302975625276112E-01   0.123657577741542E-01   0.206227E-01   0.104767E+01   0.142602E+02   0.590343E-16
   LPB:    4  -0.302949954024058E-01   0.485154778939563E-02   0.124193E-01   0.688667E+00   0.433944E+02   0.158197E-15
   LPB:    5  -0.302944157988168E-01   0.166688250514383E-02   0.137972E-01   0.203232E+00   0.125470E+03   0.178936E-15
   LPB:    6  -0.302943130226020E-01   0.213925300920632E-02   0.142779E-01   0.171351E+00   0.135579E+03   0.173256E-15
   LPB:    7  -0.302942708137742E-01   0.152656591907704E-02   0.117444E-01   0.499278E+00   0.183117E+03   0.182272E-15
   LPB:    8  -0.302942409175670E-01   0.475229994487913E-03   0.146124E-01   0.569276E+00   0.478939E+03   0.190441E-15
   LPB:    9  -0.302942266887979E-01   0.387488237098910E-03   0.201863E-01   0.344521E+00   0.322965E+03   0.191428E-15
   LPB:   10  -0.302942152216315E-01   0.430608378395842E-03   0.242484E-01   0.670909E+00   0.484133E+03   0.191286E-15
   LPB:   11  -0.302942071730404E-01   0.305902348973185E-03   0.195571E-01   0.870246E+00   0.561950E+03   0.187945E-15
   LPB:   12  -0.302942016674052E-01   0.228743445913694E-03   0.202687E-01   0.660033E+00   0.235815E+03   0.186937E-15
    LS:    0  -0.302942016691556E-01   0.151253976798868E-04   0.302507988605038E-04
 resid(G=0) =   1.188261205172308E-011
  NLPB:    1  -0.302942016691556E-01   0.228655951658599E-03
  Finished solving NLPB equations
 End minimization
 Ecorr=   1991.93131163368     
 A_corr=  0.180622861377000     
 Ecorr_band=  -1991.75068877230     
 End Solvation calculations
RMM:  16    -0.195273064671E+03   -0.14106E-03   -0.68555E-05  6909   0.908E-03    0.202E-02
deltaQ =   3.180702E-06
 Dsol_rc =      -0.01041238     -0.00566243     -0.09546633
 Dele =       0.00000000      0.00000000     -0.03277128
alpha =   6.000000E-01
DIPOLC =       0.00000000      0.00000000     -0.12864955
ZVAL =  -1.286496E+00
deltaQ =   3.180702E-06
deltaQ =   3.180702E-06
 Dsol_rc =      -0.01041238     -0.00566243     -0.09546633
 Dele =       0.00000000      0.00000000     -0.03277128
alpha =   6.000000E-01
DIPOLC =       0.00000000      0.00000000     -0.12864955
ZVAL =  -1.286496E+00
deltaQ =   3.180702E-06
 Dsol_rc =      -0.01041238     -0.00566243     -0.09546633
 Dele =       0.00000000      0.00000000     -0.03277128
alpha =   6.000000E-01
DIPOLC =       0.00000000      0.00000000     -0.12864955
ZVAL =  -1.286496E+00
deltaQ =   3.180702E-06
 Dsol_rc =      -0.01041238     -0.00566243     -0.09546633
 Dele =       0.00000000      0.00000000     -0.03277128
alpha =   6.000000E-01
DIPOLC =       0.00000000      0.00000000     -0.12864955
ZVAL =  -1.286496E+00
deltaQ =   3.180702E-06
 Dsol_rc =      -0.01041238     -0.00566243     -0.09546633
 Dele =       0.00000000      0.00000000     -0.03277128
alpha =   6.000000E-01
DIPOLC =       0.00000000      0.00000000     -0.12864955
ZVAL =  -1.286496E+00
deltaQ =   3.180702E-06
 Dsol_rc =      -0.01041238     -0.00566243     -0.09546633
 Dele =       0.00000000      0.00000000     -0.03277128
alpha =   6.000000E-01
DIPOLC =       0.00000000      0.00000000     -0.12864955
ZVAL =  -1.286496E+00
deltaQ =   3.180702E-06
 Dsol_rc =      -0.01041238     -0.00566243     -0.09546633
 Dele =       0.00000000      0.00000000     -0.03277128
alpha =   6.000000E-01
DIPOLC =       0.00000000      0.00000000     -0.12864955
ZVAL =  -1.286496E+00
deltaQ =   3.180702E-06
 Dsol_rc =      -0.01041238     -0.00566243     -0.09546633
 Dele =       0.00000000      0.00000000     -0.03277128
alpha =   6.000000E-01
DIPOLC =       0.00000000      0.00000000     -0.12864955
ZVAL =  -1.286496E+00
deltaQ =   3.180702E-06
 Dsol_rc =      -0.01041238     -0.00566243     -0.09546633
 Dele =       0.00000000      0.00000000     -0.03277128
alpha =   6.000000E-01
DIPOLC =       0.00000000      0.00000000     -0.12864955
ZVAL =  -1.286496E+00
deltaQ =   3.180702E-06
 Dsol_rc =      -0.01041238     -0.00566243     -0.09546633
 Dele =       0.00000000      0.00000000     -0.03277128
alpha =   6.000000E-01
DIPOLC =       0.00000000      0.00000000     -0.12864955
ZVAL =  -1.286496E+00
deltaQ =   3.180702E-06
 Dsol_rc =      -0.01041238     -0.00566243     -0.09546633
 Dele =       0.00000000      0.00000000     -0.03277128
alpha =   6.000000E-01
DIPOLC =       0.00000000      0.00000000     -0.12864955
ZVAL =  -1.286496E+00
deltaQ =   3.180702E-06
 Dsol_rc =      -0.01041238     -0.00566243     -0.09546633
 Dele =       0.00000000      0.00000000     -0.03277128
alpha =   6.000000E-01
DIPOLC =       0.00000000      0.00000000     -0.12864955
ZVAL =  -1.286496E+00
deltaQ =   3.180702E-06
 Dsol_rc =      -0.01041238     -0.00566243     -0.09546633
 Dele =       0.00000000      0.00000000     -0.03277128
alpha =   6.000000E-01
DIPOLC =       0.00000000      0.00000000     -0.12864955
ZVAL =  -1.286496E+00
deltaQ =   3.180702E-06
 Dsol_rc =      -0.01041238     -0.00566243     -0.09546633
 Dele =       0.00000000      0.00000000     -0.03277128
alpha =   6.000000E-01
DIPOLC =       0.00000000      0.00000000     -0.12864955
ZVAL =  -1.286496E+00
deltaQ =   3.180702E-06
 Dsol_rc =      -0.01041238     -0.00566243     -0.09546633
 Dele =       0.00000000      0.00000000     -0.03277128
alpha =   6.000000E-01
DIPOLC =       0.00000000      0.00000000     -0.12864955
ZVAL =  -1.286496E+00
 Dsol_rc =      -0.01041238     -0.00566243     -0.09546633
 Dele =       0.00000000      0.00000000     -0.03277128
alpha =   6.000000E-01
DIPOLC =       0.00000000      0.00000000     -0.12864955
ZVAL =  -1.286496E+00
 Begin Solvation calculations
  rms_SCF =   3.224039532966131E-002 tol =   3.224039532966131E-003
 Begin minimization
 Creating dielectric and ionic cavities
  area:      239.951007681106     
  volume:    3289.91900810263     
  A_cav:    0.210916935751692     
  qion_max:     4.88208701985995     
  Solving nonlinear dielectric/ionic screening model
  Starting outer loop
        iter                  A_solv                     rms
 resid(G=0) =  -2.529606202977056E-008
  NLPB:    0  -0.304127928780895E-01   0.101671341899384E-02
   LPB:       -0.304127928780895E-01   0.101671341867915E-02
   LPB:    0  -0.304127928780895E-01   0.101670982212354E-02  -0.305171E-09   0.000000E+00   0.828915E+02  -0.252961E-07
   LPB:    1  -0.304126484347579E-01   0.219936717092311E-02   0.551692E-01   0.000000E+00   0.912290E+02  -0.152338E-24
   LPB:    2  -0.304123443144875E-01   0.774692393198898E-02   0.334644E-01   0.347106E+01   0.505257E+02  -0.375838E-17
   LPB:    3  -0.304117679797922E-01   0.714630061831793E-02   0.139558E-01   0.454420E+01   0.212267E+02  -0.149796E-16
   LPB:    4  -0.304113436290233E-01   0.606902481119396E-02   0.103324E-01   0.994500E+00   0.232699E+02  -0.266289E-16
   LPB:    5  -0.304110989489463E-01   0.228764181622847E-02   0.116610E-01   0.510901E+00   0.344469E+02  -0.410436E-16
   LPB:    6  -0.304109650254603E-01   0.104275419304634E-02   0.159868E-01   0.399239E+00   0.111392E+03  -0.614994E-16
   LPB:    7  -0.304109009849912E-01   0.878947658264092E-03   0.183389E-01   0.416857E+00   0.166242E+03  -0.567515E-16
   LPB:    8  -0.304108699624219E-01   0.525235091336477E-03   0.165485E-01   0.536831E+00   0.150872E+03  -0.560543E-16
   LPB:    9  -0.304108547839013E-01   0.290886407088247E-03   0.215579E-01   0.375581E+00   0.316683E+03  -0.636071E-16
   LPB:   10  -0.304108481240509E-01   0.218577096462373E-03   0.198243E-01   0.477136E+00   0.214294E+03  -0.681705E-16
   LPB:   11  -0.304108444647160E-01   0.201420297886931E-03   0.251518E-01   0.433080E+00   0.549072E+03  -0.713777E-16
   LPB:   12  -0.304108416320064E-01   0.218624391322782E-03   0.214936E-01   0.905856E+00   0.604131E+03  -0.682331E-16
   LPB:   13  -0.304108393996567E-01   0.167350003358818E-03   0.198463E-01   0.853471E+00   0.256301E+03  -0.658018E-16
   LPB:   14  -0.304108378776375E-01   0.402595995038136E-03   0.191680E-01   0.705929E+00   0.490423E+03  -0.655581E-16
   LPB:   15  -0.304108372333547E-01   0.127353076277372E-03   0.633502E-02   0.128081E+01   0.336236E+03  -0.640477E-16
   LPB:   16  -0.304108363127495E-01   0.483228335015193E-04   0.259831E-01   0.348380E+00   0.108826E+04  -0.634681E-16
    LS:    0  -0.304108363007240E-01   0.195657736556248E-05   0.391313068004992E-05
 resid(G=0) =  -1.496895155774620E-012
  NLPB:    1  -0.304108363007240E-01   0.482945705876272E-04
  Finished solving NLPB equations
 End minimization
 Ecorr=   1991.08017826663     
 A_corr=  0.180506099450968     
 Ecorr_band=  -1990.89967216718     
 End Solvation calculations
RMM:  17    -0.195273224924E+03   -0.16025E-03   -0.23072E-05  7043   0.503E-03    0.117E-02
deltaQ =   3.180363E-06
 Dsol_rc =      -0.01067668     -0.00566205     -0.09791865
 Dele =       0.00000000      0.00000000     -0.03028005
alpha =   6.000000E-01
DIPOLC =       0.00000000      0.00000000     -0.12837904
ZVAL =  -1.283790E+00
deltaQ =   3.180363E-06
 Dsol_rc =      -0.01067668     -0.00566205     -0.09791865
 Dele =       0.00000000      0.00000000     -0.03028005
alpha =   6.000000E-01
DIPOLC =       0.00000000      0.00000000     -0.12837904
ZVAL =  -1.283790E+00
deltaQ =   3.180363E-06
deltaQ =   3.180363E-06
 Dsol_rc =      -0.01067668     -0.00566205     -0.09791865
 Dele =       0.00000000      0.00000000     -0.03028005
alpha =   6.000000E-01
DIPOLC =       0.00000000      0.00000000     -0.12837904
ZVAL =  -1.283790E+00
deltaQ =   3.180363E-06
 Dsol_rc =      -0.01067668     -0.00566205     -0.09791865
 Dele =       0.00000000      0.00000000     -0.03028005
alpha =   6.000000E-01
DIPOLC =       0.00000000      0.00000000     -0.12837904
ZVAL =  -1.283790E+00
deltaQ =   3.180363E-06
 Dsol_rc =      -0.01067668     -0.00566205     -0.09791865
 Dele =       0.00000000      0.00000000     -0.03028005
alpha =   6.000000E-01
DIPOLC =       0.00000000      0.00000000     -0.12837904
ZVAL =  -1.283790E+00
deltaQ =   3.180363E-06
 Dsol_rc =      -0.01067668     -0.00566205     -0.09791865
 Dele =       0.00000000      0.00000000     -0.03028005
alpha =   6.000000E-01
DIPOLC =       0.00000000      0.00000000     -0.12837904
ZVAL =  -1.283790E+00
deltaQ =   3.180363E-06
 Dsol_rc =      -0.01067668     -0.00566205     -0.09791865
 Dele =       0.00000000      0.00000000     -0.03028005
alpha =   6.000000E-01
DIPOLC =       0.00000000      0.00000000     -0.12837904
ZVAL =  -1.283790E+00
deltaQ =   3.180363E-06
 Dsol_rc =      -0.01067668     -0.00566205     -0.09791865
 Dele =       0.00000000      0.00000000     -0.03028005
alpha =   6.000000E-01
DIPOLC =       0.00000000      0.00000000     -0.12837904
ZVAL =  -1.283790E+00
deltaQ =   3.180363E-06
 Dsol_rc =      -0.01067668     -0.00566205     -0.09791865
 Dele =       0.00000000      0.00000000     -0.03028005
alpha =   6.000000E-01
DIPOLC =       0.00000000      0.00000000     -0.12837904
ZVAL =  -1.283790E+00
deltaQ =   3.180363E-06
 Dsol_rc =      -0.01067668     -0.00566205     -0.09791865
 Dele =       0.00000000      0.00000000     -0.03028005
alpha =   6.000000E-01
DIPOLC =       0.00000000      0.00000000     -0.12837904
ZVAL =  -1.283790E+00
deltaQ =   3.180363E-06
 Dsol_rc =      -0.01067668     -0.00566205     -0.09791865
 Dele =       0.00000000      0.00000000     -0.03028005
alpha =   6.000000E-01
DIPOLC =       0.00000000      0.00000000     -0.12837904
ZVAL =  -1.283790E+00
deltaQ =   3.180363E-06
 Dsol_rc =      -0.01067668     -0.00566205     -0.09791865
 Dele =       0.00000000      0.00000000     -0.03028005
alpha =   6.000000E-01
DIPOLC =       0.00000000      0.00000000     -0.12837904
ZVAL =  -1.283790E+00
deltaQ =   3.180363E-06
 Dsol_rc =      -0.01067668     -0.00566205     -0.09791865
 Dele =       0.00000000      0.00000000     -0.03028005
alpha =   6.000000E-01
DIPOLC =       0.00000000      0.00000000     -0.12837904
ZVAL =  -1.283790E+00
deltaQ =   3.180363E-06
 Dsol_rc =      -0.01067668     -0.00566205     -0.09791865
 Dele =       0.00000000      0.00000000     -0.03028005
alpha =   6.000000E-01
DIPOLC =       0.00000000      0.00000000     -0.12837904
ZVAL =  -1.283790E+00
deltaQ =   3.180363E-06
 Dsol_rc =      -0.01067668     -0.00566205     -0.09791865
 Dele =       0.00000000      0.00000000     -0.03028005
alpha =   6.000000E-01
DIPOLC =       0.00000000      0.00000000     -0.12837904
ZVAL =  -1.283790E+00
 Dsol_rc =      -0.01067668     -0.00566205     -0.09791865
 Dele =       0.00000000      0.00000000     -0.03028005
alpha =   6.000000E-01
DIPOLC =       0.00000000      0.00000000     -0.12837904
ZVAL =  -1.283790E+00
 Begin Solvation calculations
  rms_SCF =   1.491226885091101E-002 tol =   1.491226885091101E-003
 Begin minimization
 Creating dielectric and ionic cavities
  area:      239.950943922007     
  volume:    3289.90511661928     
  A_cav:    0.210916879707445     
  qion_max:     4.88212710363105     
  Solving nonlinear dielectric/ionic screening model
  Starting outer loop
        iter                  A_solv                     rms
 resid(G=0) =  -2.230830265733571E-008
  NLPB:    0  -0.305238041741635E-01   0.958960174068513E-03
   LPB:       -0.305238041741635E-01   0.958960173809034E-03
   LPB:    0  -0.305238041741635E-01   0.958961037570821E-03  -0.269124E-09   0.000000E+00   0.828921E+02  -0.223083E-07
   LPB:    1  -0.305237221440039E-01   0.158065166546819E-02   0.459931E-01   0.000000E+00   0.837828E+02   0.933329E-24
   LPB:    2  -0.305234966689682E-01   0.565427804384366E-02   0.553748E-01   0.228300E+01   0.338374E+02  -0.141147E-17
   LPB:    3  -0.305230208868995E-01   0.432186093312058E-02   0.181896E-01   0.642390E+01   0.117586E+02  -0.430865E-16
   LPB:    4  -0.305227511594533E-01   0.350815055212414E-02   0.181987E-01   0.566630E+00   0.197144E+02  -0.130444E-15
   LPB:    5  -0.305226994079866E-01   0.171871387882783E-02   0.583917E-02   0.597981E+00   0.860633E+02  -0.196881E-15
   LPB:    6  -0.305226476963073E-01   0.769478134112558E-03   0.154530E-01   0.377575E+00   0.112788E+03  -0.209558E-15
   LPB:    7  -0.305226222342300E-01   0.524201120041847E-03   0.161592E-01   0.470869E+00   0.159762E+03  -0.222238E-15
   LPB:    8  -0.305226083852908E-01   0.365014319948118E-03   0.183163E-01   0.479847E+00   0.171478E+03  -0.227744E-15
   LPB:    9  -0.305225974157612E-01   0.185396960113444E-03   0.242050E-01   0.599384E+00   0.179525E+03  -0.230438E-15
   LPB:   10  -0.305225926697845E-01   0.124123182569975E-03   0.207858E-01   0.503822E+00   0.606029E+03  -0.232846E-15
   LPB:   11  -0.305225907035871E-01   0.150871434805248E-03   0.218741E-01   0.393674E+00   0.747834E+03  -0.235679E-15
   LPB:   12  -0.305225898595601E-01   0.818368901994075E-04   0.150699E-01   0.623088E+00   0.353076E+03  -0.236299E-15
    LS:    0  -0.305225898515430E-01   0.121432262049220E-05   0.242862920672412E-05
 resid(G=0) =  -6.214316619951765E-013
  NLPB:    1  -0.305225898515430E-01   0.818329681641860E-04
  Finished solving NLPB equations
 End minimization
 Ecorr=   1990.22075024112     
 A_corr=  0.180394289855902     
 Ecorr_band=  -1990.04035595127     
 End Solvation calculations
RMM:  18    -0.195273382302E+03   -0.15738E-03   -0.14184E-05  7024   0.366E-03    0.106E-02
deltaQ =   3.180351E-06
 Dsol_rc =      -0.01113167     -0.00566146     -0.10096180
 Dele =       0.00000000      0.00000000     -0.02610499
alpha =   6.000000E-01
DIPOLC =       0.00000000      0.00000000     -0.12759169
ZVAL =  -1.275917E+00
deltaQ =   3.180351E-06
 Dsol_rc =      -0.01113167     -0.00566146     -0.10096180
 Dele =       0.00000000      0.00000000     -0.02610499
alpha =   6.000000E-01
DIPOLC =       0.00000000      0.00000000     -0.12759169
ZVAL =  -1.275917E+00
deltaQ =   3.180351E-06
 Dsol_rc =      -0.01113167     -0.00566146     -0.10096180
 Dele =       0.00000000      0.00000000     -0.02610499
alpha =   6.000000E-01
DIPOLC =       0.00000000      0.00000000     -0.12759169
ZVAL =  -1.275917E+00
deltaQ =   3.180351E-06
 Dsol_rc =      -0.01113167     -0.00566146     -0.10096180
 Dele =       0.00000000      0.00000000     -0.02610499
alpha =   6.000000E-01
DIPOLC =       0.00000000      0.00000000     -0.12759169
ZVAL =  -1.275917E+00
deltaQ =   3.180351E-06
 Dsol_rc =      -0.01113167     -0.00566146     -0.10096180
 Dele =       0.00000000      0.00000000     -0.02610499
alpha =   6.000000E-01
DIPOLC =       0.00000000      0.00000000     -0.12759169
ZVAL =  -1.275917E+00
deltaQ =   3.180351E-06
 Dsol_rc =      -0.01113167     -0.00566146     -0.10096180
 Dele =       0.00000000      0.00000000     -0.02610499
alpha =   6.000000E-01
DIPOLC =       0.00000000      0.00000000     -0.12759169
ZVAL =  -1.275917E+00
deltaQ =   3.180351E-06
 Dsol_rc =      -0.01113167     -0.00566146     -0.10096180
 Dele =       0.00000000      0.00000000     -0.02610499
alpha =   6.000000E-01
DIPOLC =       0.00000000      0.00000000     -0.12759169
ZVAL =  -1.275917E+00
deltaQ =   3.180351E-06
deltaQ =   3.180351E-06
 Dsol_rc =      -0.01113167     -0.00566146     -0.10096180
 Dele =       0.00000000      0.00000000     -0.02610499
alpha =   6.000000E-01
DIPOLC =       0.00000000      0.00000000     -0.12759169
ZVAL =  -1.275917E+00
deltaQ =   3.180351E-06
 Dsol_rc =      -0.01113167     -0.00566146     -0.10096180
 Dele =       0.00000000      0.00000000     -0.02610499
alpha =   6.000000E-01
DIPOLC =       0.00000000      0.00000000     -0.12759169
ZVAL =  -1.275917E+00
deltaQ =   3.180351E-06
 Dsol_rc =      -0.01113167     -0.00566146     -0.10096180
 Dele =       0.00000000      0.00000000     -0.02610499
alpha =   6.000000E-01
DIPOLC =       0.00000000      0.00000000     -0.12759169
ZVAL =  -1.275917E+00
deltaQ =   3.180351E-06
 Dsol_rc =      -0.01113167     -0.00566146     -0.10096180
 Dele =       0.00000000      0.00000000     -0.02610499
alpha =   6.000000E-01
DIPOLC =       0.00000000      0.00000000     -0.12759169
ZVAL =  -1.275917E+00
deltaQ =   3.180351E-06
 Dsol_rc =      -0.01113167     -0.00566146     -0.10096180
 Dele =       0.00000000      0.00000000     -0.02610499
alpha =   6.000000E-01
DIPOLC =       0.00000000      0.00000000     -0.12759169
ZVAL =  -1.275917E+00
deltaQ =   3.180351E-06
 Dsol_rc =      -0.01113167     -0.00566146     -0.10096180
 Dele =       0.00000000      0.00000000     -0.02610499
alpha =   6.000000E-01
DIPOLC =       0.00000000      0.00000000     -0.12759169
ZVAL =  -1.275917E+00
deltaQ =   3.180351E-06
 Dsol_rc =      -0.01113167     -0.00566146     -0.10096180
 Dele =       0.00000000      0.00000000     -0.02610499
alpha =   6.000000E-01
DIPOLC =       0.00000000      0.00000000     -0.12759169
ZVAL =  -1.275917E+00
deltaQ =   3.180351E-06
 Dsol_rc =      -0.01113167     -0.00566146     -0.10096180
 Dele =       0.00000000      0.00000000     -0.02610499
alpha =   6.000000E-01
DIPOLC =       0.00000000      0.00000000     -0.12759169
ZVAL =  -1.275917E+00
 Dsol_rc =      -0.01113167     -0.00566146     -0.10096180
 Dele =       0.00000000      0.00000000     -0.02610499
alpha =   6.000000E-01
DIPOLC =       0.00000000      0.00000000     -0.12759169
ZVAL =  -1.275917E+00
 Begin Solvation calculations
  rms_SCF =   8.420848848157966E-003 tol =   8.420848848157966E-004
 Begin minimization
 Creating dielectric and ionic cavities
  area:      239.950869479644     
  volume:    3289.88510069064     
  A_cav:    0.210916814272607     
  qion_max:     4.88218479271171     
  Solving nonlinear dielectric/ionic screening model
  Starting outer loop
        iter                  A_solv                     rms
 resid(G=0) =  -3.046733829149565E-008
  NLPB:    0  -0.306704964743061E-01   0.120309022205110E-02
   LPB:       -0.306704964743061E-01   0.120309022166532E-02
   LPB:    0  -0.306704964743060E-01   0.120310427718042E-02  -0.367550E-09   0.000000E+00   0.828931E+02  -0.304673E-07
   LPB:    1  -0.306703627237735E-01   0.167762884166679E-02   0.459379E-01   0.000000E+00   0.811106E+02  -0.810786E-24
   LPB:    2  -0.306699259498288E-01   0.672058539254745E-02   0.653113E-01   0.229691E+01   0.369479E+02  -0.104888E-16
   LPB:    3  -0.306691818083498E-01   0.745493097536504E-02   0.166445E-01   0.668522E+01   0.170494E+02  -0.719194E-16
   LPB:    4  -0.306688324830153E-01   0.581888720706889E-02   0.108305E-01   0.721436E+00   0.416884E+02  -0.171430E-15
   LPB:    5  -0.306686629154052E-01   0.271093526247097E-02   0.750099E-02   0.700877E+00   0.786642E+02  -0.248967E-15
   LPB:    6  -0.306685873750072E-01   0.876848906103527E-03   0.102032E-01   0.327504E+00   0.160845E+03  -0.288436E-15
   LPB:    7  -0.306685294060043E-01   0.479667679064302E-03   0.222883E-01   0.351300E+00   0.218286E+03  -0.297884E-15
   LPB:    8  -0.306685038042278E-01   0.359069368728730E-03   0.215465E-01   0.456850E+00   0.235630E+03  -0.300462E-15
   LPB:    9  -0.306684950960004E-01   0.277075142588044E-03   0.186732E-01   0.392480E+00   0.572862E+03  -0.305580E-15
   LPB:   10  -0.306684917835108E-01   0.150556433024766E-03   0.152830E-01   0.464768E+00   0.457264E+03  -0.307473E-15
   LPB:   11  -0.306684900926935E-01   0.129948303355867E-03   0.200125E-01   0.389805E+00   0.938048E+03  -0.309069E-15
   LPB:   12  -0.306684890912761E-01   0.864146189747785E-04   0.182962E-01   0.647828E+00   0.547553E+03  -0.309618E-15
    LS:    0  -0.306684890830643E-01   0.200739124176647E-05   0.401476605984443E-05
 resid(G=0) =   1.296567537104683E-013
  NLPB:    1  -0.306684890830643E-01   0.863707985889752E-04
  Finished solving NLPB equations
 End minimization
 Ecorr=   1989.28655439719     
 A_corr=  0.180248325189543     
 Ecorr_band=  -1989.10630607200     
 End Solvation calculations
RMM:  19    -0.195273566905E+03   -0.18460E-03   -0.13853E-05  7140   0.302E-03    0.606E-03
deltaQ =   3.180424E-06
 Dsol_rc =      -0.01020393     -0.00566076     -0.10451476
 Dele =       0.00000000      0.00000000     -0.02297852
alpha =   6.000000E-01
DIPOLC =       0.00000000      0.00000000     -0.12753264
ZVAL =  -1.275326E+00
deltaQ =   3.180424E-06
 Dsol_rc =      -0.01020393     -0.00566076     -0.10451476
 Dele =       0.00000000      0.00000000     -0.02297852
alpha =   6.000000E-01
DIPOLC =       0.00000000      0.00000000     -0.12753264
ZVAL =  -1.275326E+00
deltaQ =   3.180424E-06
 Dsol_rc =      -0.01020393     -0.00566076     -0.10451476
 Dele =       0.00000000      0.00000000     -0.02297852
alpha =   6.000000E-01
DIPOLC =       0.00000000      0.00000000     -0.12753264
ZVAL =  -1.275326E+00
deltaQ =   3.180424E-06
 Dsol_rc =      -0.01020393     -0.00566076     -0.10451476
 Dele =       0.00000000      0.00000000     -0.02297852
alpha =   6.000000E-01
DIPOLC =       0.00000000      0.00000000     -0.12753264
ZVAL =  -1.275326E+00
deltaQ =   3.180424E-06
deltaQ =   3.180424E-06
 Dsol_rc =      -0.01020393     -0.00566076     -0.10451476
 Dele =       0.00000000      0.00000000     -0.02297852
alpha =   6.000000E-01
DIPOLC =       0.00000000      0.00000000     -0.12753264
ZVAL =  -1.275326E+00
deltaQ =   3.180424E-06
 Dsol_rc =      -0.01020393     -0.00566076     -0.10451476
 Dele =       0.00000000      0.00000000     -0.02297852
alpha =   6.000000E-01
DIPOLC =       0.00000000      0.00000000     -0.12753264
ZVAL =  -1.275326E+00
deltaQ =   3.180424E-06
 Dsol_rc =      -0.01020393     -0.00566076     -0.10451476
 Dele =       0.00000000      0.00000000     -0.02297852
alpha =   6.000000E-01
DIPOLC =       0.00000000      0.00000000     -0.12753264
ZVAL =  -1.275326E+00
deltaQ =   3.180424E-06
 Dsol_rc =      -0.01020393     -0.00566076     -0.10451476
 Dele =       0.00000000      0.00000000     -0.02297852
alpha =   6.000000E-01
DIPOLC =       0.00000000      0.00000000     -0.12753264
ZVAL =  -1.275326E+00
deltaQ =   3.180424E-06
 Dsol_rc =      -0.01020393     -0.00566076     -0.10451476
 Dele =       0.00000000      0.00000000     -0.02297852
alpha =   6.000000E-01
DIPOLC =       0.00000000      0.00000000     -0.12753264
ZVAL =  -1.275326E+00
deltaQ =   3.180424E-06
 Dsol_rc =      -0.01020393     -0.00566076     -0.10451476
 Dele =       0.00000000      0.00000000     -0.02297852
alpha =   6.000000E-01
DIPOLC =       0.00000000      0.00000000     -0.12753264
ZVAL =  -1.275326E+00
deltaQ =   3.180424E-06
 Dsol_rc =      -0.01020393     -0.00566076     -0.10451476
 Dele =       0.00000000      0.00000000     -0.02297852
alpha =   6.000000E-01
DIPOLC =       0.00000000      0.00000000     -0.12753264
ZVAL =  -1.275326E+00
deltaQ =   3.180424E-06
 Dsol_rc =      -0.01020393     -0.00566076     -0.10451476
 Dele =       0.00000000      0.00000000     -0.02297852
alpha =   6.000000E-01
DIPOLC =       0.00000000      0.00000000     -0.12753264
ZVAL =  -1.275326E+00
deltaQ =   3.180424E-06
 Dsol_rc =      -0.01020393     -0.00566076     -0.10451476
 Dele =       0.00000000      0.00000000     -0.02297852
alpha =   6.000000E-01
DIPOLC =       0.00000000      0.00000000     -0.12753264
ZVAL =  -1.275326E+00
deltaQ =   3.180424E-06
 Dsol_rc =      -0.01020393     -0.00566076     -0.10451476
 Dele =       0.00000000      0.00000000     -0.02297852
alpha =   6.000000E-01
DIPOLC =       0.00000000      0.00000000     -0.12753264
ZVAL =  -1.275326E+00
deltaQ =   3.180424E-06
 Dsol_rc =      -0.01020393     -0.00566076     -0.10451476
 Dele =       0.00000000      0.00000000     -0.02297852
alpha =   6.000000E-01
DIPOLC =       0.00000000      0.00000000     -0.12753264
ZVAL =  -1.275326E+00
 Dsol_rc =      -0.01020393     -0.00566076     -0.10451476
 Dele =       0.00000000      0.00000000     -0.02297852
alpha =   6.000000E-01
DIPOLC =       0.00000000      0.00000000     -0.12753264
ZVAL =  -1.275326E+00
 Begin Solvation calculations
  rms_SCF =   6.261691784507071E-003 tol =   6.261691784507071E-004
 Begin minimization
 Creating dielectric and ionic cavities
  area:      239.950870013854     
  volume:    3289.87348788670     
  A_cav:    0.210916814742178     
  qion_max:     4.88221806411033     
  Solving nonlinear dielectric/ionic screening model
  Starting outer loop
        iter                  A_solv                     rms
 resid(G=0) =  -1.617012318407052E-008
  NLPB:    0  -0.307530675565329E-01   0.587539669933425E-03
   LPB:       -0.307530675565329E-01   0.587539669710910E-03
   LPB:    0  -0.307530675565329E-01   0.587542785064659E-03  -0.195071E-09   0.000000E+00   0.828937E+02  -0.161701E-07
   LPB:    1  -0.307530493186494E-01   0.422102674602423E-03   0.293954E-01   0.000000E+00   0.119718E+03  -0.112256E-24
   LPB:    2  -0.307529869750567E-01   0.201946404630787E-02   0.884504E-01   0.113605E+01   0.241356E+02  -0.232391E-17
   LPB:    3  -0.307528866736818E-01   0.347610627777971E-02   0.222702E-01   0.638986E+01   0.113043E+02  -0.171170E-16
   LPB:    4  -0.307528230499367E-01   0.205682581018631E-02   0.106056E-01   0.133199E+01   0.190933E+02  -0.739497E-16
   LPB:    5  -0.307527915706886E-01   0.155288879357386E-02   0.848054E-02   0.618750E+00   0.430450E+02  -0.116836E-15
   LPB:    6  -0.307527752917848E-01   0.532481713902464E-03   0.933990E-02   0.469550E+00   0.758398E+02  -0.137104E-15
   LPB:    7  -0.307527599131841E-01   0.501209804534157E-03   0.206055E-01   0.428205E+00   0.802417E+02  -0.147701E-15
   LPB:    8  -0.307527526200359E-01   0.258178692943923E-03   0.146897E-01   0.665222E+00   0.773931E+02  -0.159127E-15
   LPB:    9  -0.307527498757140E-01   0.663340733849333E-04   0.164520E-01   0.335981E+00   0.323373E+03  -0.166347E-15
   LPB:   10  -0.307527490128228E-01   0.514013097673470E-04   0.213478E-01   0.242319E+00   0.521563E+03  -0.169724E-15
    LS:    0  -0.307527490116796E-01   0.318544853286640E-06   0.637087420184386E-06
 resid(G=0) =  -5.478805690717543E-013
  NLPB:    1  -0.307527490116796E-01   0.514063012284446E-04
  Finished solving NLPB equations
 End minimization
 Ecorr=   1988.74139117879     
 A_corr=  0.180164065730498     
 Ecorr_band=  -1988.56122711306     
 End Solvation calculations
RMM:  20    -0.195273660861E+03   -0.93956E-04   -0.51031E-06  6832   0.176E-03    0.337E-03
deltaQ =   3.180368E-06
 Dsol_rc =      -0.01049419     -0.00566077     -0.10618760
 Dele =       0.00000000      0.00000000     -0.01339897
alpha =   6.000000E-01
DIPOLC =       0.00000000      0.00000000     -0.12276500
ZVAL =  -1.227650E+00
deltaQ =   3.180368E-06
deltaQ =   3.180368E-06
 Dsol_rc =      -0.01049419     -0.00566077     -0.10618760
 Dele =       0.00000000      0.00000000     -0.01339897
alpha =   6.000000E-01
DIPOLC =       0.00000000      0.00000000     -0.12276500
ZVAL =  -1.227650E+00
deltaQ =   3.180368E-06
 Dsol_rc =      -0.01049419     -0.00566077     -0.10618760
 Dele =       0.00000000      0.00000000     -0.01339897
alpha =   6.000000E-01
DIPOLC =       0.00000000      0.00000000     -0.12276500
ZVAL =  -1.227650E+00
deltaQ =   3.180368E-06
 Dsol_rc =      -0.01049419     -0.00566077     -0.10618760
 Dele =       0.00000000      0.00000000     -0.01339897
alpha =   6.000000E-01
DIPOLC =       0.00000000      0.00000000     -0.12276500
ZVAL =  -1.227650E+00
deltaQ =   3.180368E-06
 Dsol_rc =      -0.01049419     -0.00566077     -0.10618760
 Dele =       0.00000000      0.00000000     -0.01339897
alpha =   6.000000E-01
DIPOLC =       0.00000000      0.00000000     -0.12276500
ZVAL =  -1.227650E+00
deltaQ =   3.180368E-06
 Dsol_rc =      -0.01049419     -0.00566077     -0.10618760
 Dele =       0.00000000      0.00000000     -0.01339897
alpha =   6.000000E-01
DIPOLC =       0.00000000      0.00000000     -0.12276500
ZVAL =  -1.227650E+00
deltaQ =   3.180368E-06
 Dsol_rc =      -0.01049419     -0.00566077     -0.10618760
 Dele =       0.00000000      0.00000000     -0.01339897
alpha =   6.000000E-01
DIPOLC =       0.00000000      0.00000000     -0.12276500
ZVAL =  -1.227650E+00
deltaQ =   3.180368E-06
 Dsol_rc =      -0.01049419     -0.00566077     -0.10618760
 Dele =       0.00000000      0.00000000     -0.01339897
alpha =   6.000000E-01
DIPOLC =       0.00000000      0.00000000     -0.12276500
ZVAL =  -1.227650E+00
deltaQ =   3.180368E-06
 Dsol_rc =      -0.01049419     -0.00566077     -0.10618760
 Dele =       0.00000000      0.00000000     -0.01339897
alpha =   6.000000E-01
DIPOLC =       0.00000000      0.00000000     -0.12276500
ZVAL =  -1.227650E+00
deltaQ =   3.180368E-06
 Dsol_rc =      -0.01049419     -0.00566077     -0.10618760
 Dele =       0.00000000      0.00000000     -0.01339897
alpha =   6.000000E-01
DIPOLC =       0.00000000      0.00000000     -0.12276500
ZVAL =  -1.227650E+00
deltaQ =   3.180368E-06
 Dsol_rc =      -0.01049419     -0.00566077     -0.10618760
 Dele =       0.00000000      0.00000000     -0.01339897
alpha =   6.000000E-01
DIPOLC =       0.00000000      0.00000000     -0.12276500
ZVAL =  -1.227650E+00
deltaQ =   3.180368E-06
 Dsol_rc =      -0.01049419     -0.00566077     -0.10618760
 Dele =       0.00000000      0.00000000     -0.01339897
alpha =   6.000000E-01
DIPOLC =       0.00000000      0.00000000     -0.12276500
ZVAL =  -1.227650E+00
deltaQ =   3.180368E-06
 Dsol_rc =      -0.01049419     -0.00566077     -0.10618760
 Dele =       0.00000000      0.00000000     -0.01339897
alpha =   6.000000E-01
DIPOLC =       0.00000000      0.00000000     -0.12276500
ZVAL =  -1.227650E+00
deltaQ =   3.180368E-06
 Dsol_rc =      -0.01049419     -0.00566077     -0.10618760
 Dele =       0.00000000      0.00000000     -0.01339897
alpha =   6.000000E-01
DIPOLC =       0.00000000      0.00000000     -0.12276500
ZVAL =  -1.227650E+00
deltaQ =   3.180368E-06
 Dsol_rc =      -0.01049419     -0.00566077     -0.10618760
 Dele =       0.00000000      0.00000000     -0.01339897
alpha =   6.000000E-01
DIPOLC =       0.00000000      0.00000000     -0.12276500
ZVAL =  -1.227650E+00
 Dsol_rc =      -0.01049419     -0.00566077     -0.10618760
 Dele =       0.00000000      0.00000000     -0.01339897
alpha =   6.000000E-01
DIPOLC =       0.00000000      0.00000000     -0.12276500
ZVAL =  -1.227650E+00
 Begin Solvation calculations
  rms_SCF =   4.089943759855461E-003 tol =   4.089943759855461E-004
 Begin minimization
 Creating dielectric and ionic cavities
  area:      239.951073531500     
  volume:    3289.85474769354     
  A_cav:    0.210916993634188     
  qion_max:     4.88227120549668     
  Solving nonlinear dielectric/ionic screening model
  Starting outer loop
        iter                  A_solv                     rms
 resid(G=0) =  -2.742752232485877E-008
  NLPB:    0  -0.309446513040945E-01   0.296410728910112E-02
   LPB:       -0.309446513040945E-01   0.296410728897422E-02
   LPB:    0  -0.309446513040945E-01   0.296412939177587E-02  -0.330872E-09   0.000000E+00   0.828946E+02  -0.274275E-07
   LPB:    1  -0.309363981945787E-01   0.259559901861311E-01   0.238503E+00   0.000000E+00   0.284995E+02   0.673081E-24
   LPB:    2  -0.309252038449079E-01   0.303470063563133E-01   0.231648E-01   0.139652E+02   0.453011E+02  -0.184946E-15
   LPB:    3  -0.309135164752762E-01   0.105972158187989E-01   0.127863E-01   0.189148E+01   0.453796E+02  -0.520569E-15
   LPB:    4  -0.309122368137998E-01   0.738861427908770E-02   0.125381E-01   0.111658E+00   0.155464E+03  -0.836724E-15
   LPB:    5  -0.309120183597637E-01   0.330305890361692E-02   0.569889E-02   0.375585E+00   0.254743E+03  -0.891310E-15
   LPB:    6  -0.309118440977477E-01   0.177393615104129E-02   0.138024E-01   0.329365E+00   0.333547E+03  -0.899452E-15
   LPB:    7  -0.309117585378345E-01   0.663543283527217E-03   0.139600E-01   0.485440E+00   0.660343E+03  -0.908979E-15
   LPB:    8  -0.309117265658197E-01   0.491327560242026E-03   0.187448E-01   0.278296E+00   0.440012E+03  -0.922391E-15
   LPB:    9  -0.309117127232672E-01   0.365905564090809E-03   0.205672E-01   0.394596E+00   0.331032E+03  -0.932816E-15
   LPB:   10  -0.309117045104943E-01   0.177024872883674E-03   0.198767E-01   0.613907E+00   0.492590E+03  -0.937859E-15
    LS:    0  -0.309117044633894E-01   0.329468407051295E-04   0.658935872003629E-04
 resid(G=0) =  -7.279177398174176E-012
  NLPB:    1  -0.309117044633894E-01   0.177063130829433E-03
  Finished solving NLPB equations
 End minimization
 Ecorr=   1987.76226425756     
 A_corr=  0.180005289170799     
 Ecorr_band=  -1987.58225896839     
 End Solvation calculations
RMM:  21    -0.195273842916E+03   -0.18206E-03   -0.22851E-05  8421   0.351E-03    0.127E-02
deltaQ =   3.180389E-06
 Dsol_rc =      -0.00990804     -0.00565824     -0.11239029
 Dele =       0.00000000      0.00000000     -0.01040703
alpha =   6.000000E-01
DIPOLC =       0.00000000      0.00000000     -0.12278439
ZVAL =  -1.227844E+00
deltaQ =   3.180389E-06
 Dsol_rc =      -0.00990804     -0.00565824     -0.11239029
 Dele =       0.00000000      0.00000000     -0.01040703
alpha =   6.000000E-01
DIPOLC =       0.00000000      0.00000000     -0.12278439
ZVAL =  -1.227844E+00
deltaQ =   3.180389E-06
deltaQ =   3.180389E-06
 Dsol_rc =      -0.00990804     -0.00565824     -0.11239029
 Dele =       0.00000000      0.00000000     -0.01040703
alpha =   6.000000E-01
DIPOLC =       0.00000000      0.00000000     -0.12278439
ZVAL =  -1.227844E+00
deltaQ =   3.180389E-06
 Dsol_rc =      -0.00990804     -0.00565824     -0.11239029
 Dele =       0.00000000      0.00000000     -0.01040703
alpha =   6.000000E-01
DIPOLC =       0.00000000      0.00000000     -0.12278439
ZVAL =  -1.227844E+00
deltaQ =   3.180389E-06
 Dsol_rc =      -0.00990804     -0.00565824     -0.11239029
 Dele =       0.00000000      0.00000000     -0.01040703
alpha =   6.000000E-01
DIPOLC =       0.00000000      0.00000000     -0.12278439
ZVAL =  -1.227844E+00
deltaQ =   3.180389E-06
 Dsol_rc =      -0.00990804     -0.00565824     -0.11239029
 Dele =       0.00000000      0.00000000     -0.01040703
alpha =   6.000000E-01
DIPOLC =       0.00000000      0.00000000     -0.12278439
ZVAL =  -1.227844E+00
deltaQ =   3.180389E-06
 Dsol_rc =      -0.00990804     -0.00565824     -0.11239029
 Dele =       0.00000000      0.00000000     -0.01040703
alpha =   6.000000E-01
DIPOLC =       0.00000000      0.00000000     -0.12278439
ZVAL =  -1.227844E+00
deltaQ =   3.180389E-06
 Dsol_rc =      -0.00990804     -0.00565824     -0.11239029
 Dele =       0.00000000      0.00000000     -0.01040703
alpha =   6.000000E-01
DIPOLC =       0.00000000      0.00000000     -0.12278439
ZVAL =  -1.227844E+00
deltaQ =   3.180389E-06
 Dsol_rc =      -0.00990804     -0.00565824     -0.11239029
 Dele =       0.00000000      0.00000000     -0.01040703
alpha =   6.000000E-01
DIPOLC =       0.00000000      0.00000000     -0.12278439
ZVAL =  -1.227844E+00
deltaQ =   3.180389E-06
 Dsol_rc =      -0.00990804     -0.00565824     -0.11239029
 Dele =       0.00000000      0.00000000     -0.01040703
alpha =   6.000000E-01
DIPOLC =       0.00000000      0.00000000     -0.12278439
ZVAL =  -1.227844E+00
deltaQ =   3.180389E-06
 Dsol_rc =      -0.00990804     -0.00565824     -0.11239029
 Dele =       0.00000000      0.00000000     -0.01040703
alpha =   6.000000E-01
DIPOLC =       0.00000000      0.00000000     -0.12278439
ZVAL =  -1.227844E+00
deltaQ =   3.180389E-06
 Dsol_rc =      -0.00990804     -0.00565824     -0.11239029
 Dele =       0.00000000      0.00000000     -0.01040703
alpha =   6.000000E-01
DIPOLC =       0.00000000      0.00000000     -0.12278439
ZVAL =  -1.227844E+00
deltaQ =   3.180389E-06
 Dsol_rc =      -0.00990804     -0.00565824     -0.11239029
 Dele =       0.00000000      0.00000000     -0.01040703
alpha =   6.000000E-01
DIPOLC =       0.00000000      0.00000000     -0.12278439
ZVAL =  -1.227844E+00
deltaQ =   3.180389E-06
 Dsol_rc =      -0.00990804     -0.00565824     -0.11239029
 Dele =       0.00000000      0.00000000     -0.01040703
alpha =   6.000000E-01
DIPOLC =       0.00000000      0.00000000     -0.12278439
ZVAL =  -1.227844E+00
deltaQ =   3.180389E-06
 Dsol_rc =      -0.00990804     -0.00565824     -0.11239029
 Dele =       0.00000000      0.00000000     -0.01040703
alpha =   6.000000E-01
DIPOLC =       0.00000000      0.00000000     -0.12278439
ZVAL =  -1.227844E+00
 Dsol_rc =      -0.00990804     -0.00565824     -0.11239029
 Dele =       0.00000000      0.00000000     -0.01040703
alpha =   6.000000E-01
DIPOLC =       0.00000000      0.00000000     -0.12278439
ZVAL =  -1.227844E+00
 Begin Solvation calculations
  rms_SCF =   4.089943759855461E-003 tol =   4.089943759855461E-004
 Begin minimization
 Creating dielectric and ionic cavities
  area:      239.951129661087     
  volume:    3289.84789476204     
  A_cav:    0.210917042972095     
  qion_max:     4.88229021567419     
  Solving nonlinear dielectric/ionic screening model
  Starting outer loop
        iter                  A_solv                     rms
 resid(G=0) =  -7.512080432647615E-009
  NLPB:    0  -0.309918478488485E-01   0.937634027915487E-03
   LPB:       -0.309918478488485E-01   0.937634027885395E-03
   LPB:    0  -0.309918478488485E-01   0.937631757750691E-03  -0.906217E-10   0.000000E+00   0.828949E+02  -0.751208E-08
   LPB:    1  -0.309918239067014E-01   0.119407385983166E-02   0.268552E-01   0.000000E+00   0.755116E+02  -0.382358E-24
   LPB:    2  -0.309917962476667E-01   0.164987180929799E-02   0.236047E-01   0.131433E+01   0.317132E+02  -0.612540E-19
   LPB:    3  -0.309917070208296E-01   0.288876153049135E-02   0.327654E-01   0.232403E+01   0.567125E+01  -0.113505E-16
   LPB:    4  -0.309916211064905E-01   0.202457676921223E-02   0.150429E-01   0.209726E+01   0.600611E+01  -0.333719E-16
   LPB:    5  -0.309915784268312E-01   0.238818278521223E-02   0.989195E-02   0.755450E+00   0.110319E+02  -0.551872E-16
   LPB:    6  -0.309915230373958E-01   0.121254378354586E-02   0.130056E-01   0.987094E+00   0.767264E+01  -0.676969E-16
   LPB:    7  -0.309914559114989E-01   0.459117255619337E-03   0.218038E-01   0.722870E+00   0.582115E+01  -0.851114E-16
   LPB:    8  -0.309914476016888E-01   0.322263300770985E-03   0.136725E-01   0.197418E+00   0.585469E+02  -0.104390E-15
   LPB:    9  -0.309914420361309E-01   0.161638740020435E-03   0.245591E-01   0.372866E+00   0.340735E+02  -0.106579E-15
   LPB:   10  -0.309914388469678E-01   0.229449081712128E-03   0.232372E-01   0.605614E+00   0.767924E+02  -0.111651E-15
   LPB:   11  -0.309914372581296E-01   0.106782321302030E-03   0.145622E-01   0.794988E+00   0.177215E+03  -0.113092E-15
   LPB:   12  -0.309914355146326E-01   0.487937587459760E-04   0.369886E-01   0.432016E+00   0.633846E+02  -0.113687E-15
    LS:    0  -0.309914355143504E-01   0.412334498180872E-06   0.824668431983277E-06
 resid(G=0) =   1.894551660159020E-013
  NLPB:    1  -0.309914355143504E-01   0.487960472076950E-04
  Finished solving NLPB equations
 End minimization
 Ecorr=   1986.82804534675     
 A_corr=  0.179925607457745     
 Ecorr_band=  -1986.64811973929     
 End Solvation calculations
RMM:  22    -0.195273887633E+03   -0.44717E-04   -0.51032E-06  7199   0.178E-03    0.572E-03
deltaQ =   3.180027E-06
 Dsol_rc =      -0.00997244     -0.00565763     -0.11525581
 Dele =       0.00000000      0.00000000     -0.00331304
alpha =   3.000000E-01
DIPOLC =       0.00000000      0.00000000     -0.12151973
ZVAL =  -1.215197E+00
deltaQ =   3.180027E-06
 Dsol_rc =      -0.00997244     -0.00565763     -0.11525581
 Dele =       0.00000000      0.00000000     -0.00331304
alpha =   3.000000E-01
DIPOLC =       0.00000000      0.00000000     -0.12151973
ZVAL =  -1.215197E+00
deltaQ =   3.180027E-06
deltaQ =   3.180027E-06
 Dsol_rc =      -0.00997244     -0.00565763     -0.11525581
 Dele =       0.00000000      0.00000000     -0.00331304
alpha =   3.000000E-01
DIPOLC =       0.00000000      0.00000000     -0.12151973
ZVAL =  -1.215197E+00
deltaQ =   3.180027E-06
 Dsol_rc =      -0.00997244     -0.00565763     -0.11525581
 Dele =       0.00000000      0.00000000     -0.00331304
alpha =   3.000000E-01
DIPOLC =       0.00000000      0.00000000     -0.12151973
ZVAL =  -1.215197E+00
deltaQ =   3.180027E-06
 Dsol_rc =      -0.00997244     -0.00565763     -0.11525581
 Dele =       0.00000000      0.00000000     -0.00331304
alpha =   3.000000E-01
DIPOLC =       0.00000000      0.00000000     -0.12151973
ZVAL =  -1.215197E+00
deltaQ =   3.180027E-06
 Dsol_rc =      -0.00997244     -0.00565763     -0.11525581
 Dele =       0.00000000      0.00000000     -0.00331304
alpha =   3.000000E-01
DIPOLC =       0.00000000      0.00000000     -0.12151973
ZVAL =  -1.215197E+00
deltaQ =   3.180027E-06
 Dsol_rc =      -0.00997244     -0.00565763     -0.11525581
 Dele =       0.00000000      0.00000000     -0.00331304
alpha =   3.000000E-01
DIPOLC =       0.00000000      0.00000000     -0.12151973
ZVAL =  -1.215197E+00
deltaQ =   3.180027E-06
 Dsol_rc =      -0.00997244     -0.00565763     -0.11525581
 Dele =       0.00000000      0.00000000     -0.00331304
alpha =   3.000000E-01
DIPOLC =       0.00000000      0.00000000     -0.12151973
ZVAL =  -1.215197E+00
deltaQ =   3.180027E-06
 Dsol_rc =      -0.00997244     -0.00565763     -0.11525581
 Dele =       0.00000000      0.00000000     -0.00331304
alpha =   3.000000E-01
DIPOLC =       0.00000000      0.00000000     -0.12151973
ZVAL =  -1.215197E+00
deltaQ =   3.180027E-06
 Dsol_rc =      -0.00997244     -0.00565763     -0.11525581
 Dele =       0.00000000      0.00000000     -0.00331304
alpha =   3.000000E-01
DIPOLC =       0.00000000      0.00000000     -0.12151973
ZVAL =  -1.215197E+00
deltaQ =   3.180027E-06
 Dsol_rc =      -0.00997244     -0.00565763     -0.11525581
 Dele =       0.00000000      0.00000000     -0.00331304
alpha =   3.000000E-01
DIPOLC =       0.00000000      0.00000000     -0.12151973
ZVAL =  -1.215197E+00
deltaQ =   3.180027E-06
 Dsol_rc =      -0.00997244     -0.00565763     -0.11525581
 Dele =       0.00000000      0.00000000     -0.00331304
alpha =   3.000000E-01
DIPOLC =       0.00000000      0.00000000     -0.12151973
ZVAL =  -1.215197E+00
deltaQ =   3.180027E-06
 Dsol_rc =      -0.00997244     -0.00565763     -0.11525581
 Dele =       0.00000000      0.00000000     -0.00331304
alpha =   3.000000E-01
DIPOLC =       0.00000000      0.00000000     -0.12151973
ZVAL =  -1.215197E+00
deltaQ =   3.180027E-06
 Dsol_rc =      -0.00997244     -0.00565763     -0.11525581
 Dele =       0.00000000      0.00000000     -0.00331304
alpha =   3.000000E-01
DIPOLC =       0.00000000      0.00000000     -0.12151973
ZVAL =  -1.215197E+00
deltaQ =   3.180027E-06
 Dsol_rc =      -0.00997244     -0.00565763     -0.11525581
 Dele =       0.00000000      0.00000000     -0.00331304
alpha =   3.000000E-01
DIPOLC =       0.00000000      0.00000000     -0.12151973
ZVAL =  -1.215197E+00
 Dsol_rc =      -0.00997244     -0.00565763     -0.11525581
 Dele =       0.00000000      0.00000000     -0.00331304
alpha =   3.000000E-01
DIPOLC =       0.00000000      0.00000000     -0.12151973
ZVAL =  -1.215197E+00
 Begin Solvation calculations
  rms_SCF =   4.089943759855461E-003 tol =   4.089943759855461E-004
 Begin minimization
 Creating dielectric and ionic cavities
  area:      239.951230872117     
  volume:    3289.83131449535     
  A_cav:    0.210917131936591     
  qion_max:     4.88233693535889     
  Solving nonlinear dielectric/ionic screening model
  Starting outer loop
        iter                  A_solv                     rms
 resid(G=0) =  -1.369922622310331E-008
  NLPB:    0  -0.311474205665492E-01   0.161676876388471E-02
   LPB:       -0.311474205665492E-01   0.161676876382667E-02
   LPB:    0  -0.311474205665492E-01   0.161677211160630E-02  -0.165259E-09   0.000000E+00   0.828957E+02  -0.136992E-07
   LPB:    1  -0.311471979220571E-01   0.309789565207187E-02   0.502302E-01   0.000000E+00   0.654409E+02  -0.624582E-24
   LPB:    2  -0.311467132398707E-01   0.852521944717478E-02   0.404945E-01   0.270031E+01   0.509367E+02  -0.133156E-16
   LPB:    3  -0.311452593304431E-01   0.665755524694963E-02   0.239784E-01   0.506590E+01   0.120817E+02  -0.684166E-16
   LPB:    4  -0.311446650751962E-01   0.631486718206833E-02   0.158758E-01   0.617332E+00   0.295819E+02  -0.200158E-15
   LPB:    5  -0.311445293018584E-01   0.205475335778765E-02   0.544144E-02   0.666598E+00   0.110496E+03  -0.277578E-15
   LPB:    6  -0.311444109328227E-01   0.125292590529825E-02   0.184901E-01   0.256565E+00   0.197487E+03  -0.296090E-15
   LPB:    7  -0.311443438076158E-01   0.792695015599564E-03   0.175258E-01   0.598287E+00   0.152968E+03  -0.314384E-15
   LPB:    8  -0.311443102808185E-01   0.484356961347441E-03   0.170328E-01   0.513922E+00   0.221806E+03  -0.334190E-15
   LPB:    9  -0.311442938822257E-01   0.342751936107333E-03   0.201939E-01   0.412555E+00   0.574692E+03  -0.345754E-15
   LPB:   10  -0.311442846975593E-01   0.221006221088337E-03   0.201527E-01   0.561234E+00   0.375322E+03  -0.347607E-15
   LPB:   11  -0.311442780985799E-01   0.266025694341901E-03   0.285567E-01   0.507035E+00   0.572969E+03  -0.348718E-15
   LPB:   12  -0.311442741203031E-01   0.215712901376540E-03   0.200976E-01   0.856606E+00   0.324917E+03  -0.344855E-15
   LPB:   13  -0.311442713175405E-01   0.176836112262242E-03   0.195726E-01   0.723415E+00   0.292787E+03  -0.344275E-15
   LPB:   14  -0.311442699152617E-01   0.100252973426034E-03   0.181172E-01   0.540513E+00   0.358402E+03  -0.343914E-15
    LS:    0  -0.311442698908565E-01   0.315067569273825E-05   0.630130257502015E-05
 resid(G=0) =  -9.237577815750426E-013
  NLPB:    1  -0.311442698908565E-01   0.100206621975222E-03
  Finished solving NLPB equations
 End minimization
 Ecorr=   1985.50784333853     
 A_corr=  0.179772862045735     
 Ecorr_band=  -1985.32807047649     
 End Solvation calculations
RMM:  23    -0.195273955540E+03   -0.67907E-04   -0.13187E-05  7257   0.190E-03    0.389E-03
deltaQ =   3.180187E-06
 Dsol_rc =      -0.01089574     -0.00565622     -0.12011073
 Dele =       0.00000000      0.00000000     -0.00063676
alpha =   6.000000E-01
DIPOLC =       0.00000000      0.00000000     -0.12105639
ZVAL =  -1.210564E+00
deltaQ =   3.180187E-06
deltaQ =   3.180187E-06
 Dsol_rc =      -0.01089574     -0.00565622     -0.12011073
 Dele =       0.00000000      0.00000000     -0.00063676
alpha =   6.000000E-01
DIPOLC =       0.00000000      0.00000000     -0.12105639
ZVAL =  -1.210564E+00
deltaQ =   3.180187E-06
 Dsol_rc =      -0.01089574     -0.00565622     -0.12011073
 Dele =       0.00000000      0.00000000     -0.00063676
alpha =   6.000000E-01
DIPOLC =       0.00000000      0.00000000     -0.12105639
ZVAL =  -1.210564E+00
deltaQ =   3.180187E-06
 Dsol_rc =      -0.01089574     -0.00565622     -0.12011073
 Dele =       0.00000000      0.00000000     -0.00063676
alpha =   6.000000E-01
DIPOLC =       0.00000000      0.00000000     -0.12105639
ZVAL =  -1.210564E+00
deltaQ =   3.180187E-06
 Dsol_rc =      -0.01089574     -0.00565622     -0.12011073
 Dele =       0.00000000      0.00000000     -0.00063676
alpha =   6.000000E-01
DIPOLC =       0.00000000      0.00000000     -0.12105639
ZVAL =  -1.210564E+00
deltaQ =   3.180187E-06
 Dsol_rc =      -0.01089574     -0.00565622     -0.12011073
 Dele =       0.00000000      0.00000000     -0.00063676
alpha =   6.000000E-01
DIPOLC =       0.00000000      0.00000000     -0.12105639
ZVAL =  -1.210564E+00
deltaQ =   3.180187E-06
 Dsol_rc =      -0.01089574     -0.00565622     -0.12011073
 Dele =       0.00000000      0.00000000     -0.00063676
alpha =   6.000000E-01
DIPOLC =       0.00000000      0.00000000     -0.12105639
ZVAL =  -1.210564E+00
deltaQ =   3.180187E-06
 Dsol_rc =      -0.01089574     -0.00565622     -0.12011073
 Dele =       0.00000000      0.00000000     -0.00063676
alpha =   6.000000E-01
DIPOLC =       0.00000000      0.00000000     -0.12105639
ZVAL =  -1.210564E+00
deltaQ =   3.180187E-06
 Dsol_rc =      -0.01089574     -0.00565622     -0.12011073
 Dele =       0.00000000      0.00000000     -0.00063676
alpha =   6.000000E-01
DIPOLC =       0.00000000      0.00000000     -0.12105639
ZVAL =  -1.210564E+00
deltaQ =   3.180187E-06
 Dsol_rc =      -0.01089574     -0.00565622     -0.12011073
 Dele =       0.00000000      0.00000000     -0.00063676
alpha =   6.000000E-01
DIPOLC =       0.00000000      0.00000000     -0.12105639
ZVAL =  -1.210564E+00
deltaQ =   3.180187E-06
 Dsol_rc =      -0.01089574     -0.00565622     -0.12011073
 Dele =       0.00000000      0.00000000     -0.00063676
alpha =   6.000000E-01
DIPOLC =       0.00000000      0.00000000     -0.12105639
ZVAL =  -1.210564E+00
deltaQ =   3.180187E-06
 Dsol_rc =      -0.01089574     -0.00565622     -0.12011073
 Dele =       0.00000000      0.00000000     -0.00063676
alpha =   6.000000E-01
DIPOLC =       0.00000000      0.00000000     -0.12105639
ZVAL =  -1.210564E+00
deltaQ =   3.180187E-06
 Dsol_rc =      -0.01089574     -0.00565622     -0.12011073
 Dele =       0.00000000      0.00000000     -0.00063676
alpha =   6.000000E-01
DIPOLC =       0.00000000      0.00000000     -0.12105639
ZVAL =  -1.210564E+00
deltaQ =   3.180187E-06
 Dsol_rc =      -0.01089574     -0.00565622     -0.12011073
 Dele =       0.00000000      0.00000000     -0.00063676
alpha =   6.000000E-01
DIPOLC =       0.00000000      0.00000000     -0.12105639
ZVAL =  -1.210564E+00
deltaQ =   3.180187E-06
 Dsol_rc =      -0.01089574     -0.00565622     -0.12011073
 Dele =       0.00000000      0.00000000     -0.00063676
alpha =   6.000000E-01
DIPOLC =       0.00000000      0.00000000     -0.12105639
ZVAL =  -1.210564E+00
 Dsol_rc =      -0.01089574     -0.00565622     -0.12011073
 Dele =       0.00000000      0.00000000     -0.00063676
alpha =   6.000000E-01
DIPOLC =       0.00000000      0.00000000     -0.12105639
ZVAL =  -1.210564E+00
 Begin Solvation calculations
  rms_SCF =   4.089943759855461E-003 tol =   4.089943759855461E-004
 Begin minimization
 Creating dielectric and ionic cavities
  area:      239.951300884395     
  volume:    3289.82667382597     
  A_cav:    0.210917193477383     
  qion_max:     4.88234972462538     
  Solving nonlinear dielectric/ionic screening model
  Starting outer loop
        iter                  A_solv                     rms
 resid(G=0) =  -2.600742418251874E-009
  NLPB:    0  -0.311906950732630E-01   0.727165371429669E-03
   LPB:       -0.311906950732630E-01   0.727165371425018E-03
   LPB:    0  -0.311906950732630E-01   0.727164505571358E-03  -0.313736E-10   0.000000E+00   0.828959E+02  -0.260074E-08
   LPB:    1  -0.311906681766491E-01   0.153130340959078E-02   0.412845E-01   0.000000E+00   0.588593E+02  -0.166377E-24
   LPB:    2  -0.311906317607337E-01   0.229248109794608E-02   0.195483E-01   0.285938E+01   0.623497E+02  -0.250437E-17
   LPB:    3  -0.311905267071672E-01   0.402566178546428E-02   0.230543E-01   0.244612E+01   0.152812E+02  -0.729632E-17
   LPB:    4  -0.311903978611328E-01   0.298900140659102E-02   0.111586E-01   0.253398E+01   0.964053E+01  -0.954382E-17
   LPB:    5  -0.311903265301437E-01   0.822725722870452E-03   0.115976E-01   0.532657E+00   0.147386E+02  -0.268389E-16
   LPB:    6  -0.311902947743368E-01   0.609101468778459E-03   0.197851E-01   0.260961E+00   0.551050E+02  -0.437827E-16
   LPB:    7  -0.311902783648770E-01   0.407409916330819E-03   0.164789E-01   0.620412E+00   0.811077E+02  -0.403526E-16
   LPB:    8  -0.311902675764234E-01   0.392095760711319E-03   0.231630E-01   0.467734E+00   0.489129E+02  -0.375728E-16
   LPB:    9  -0.311902594981168E-01   0.150614064772869E-03   0.219379E-01   0.790608E+00   0.163425E+03  -0.337805E-16
   LPB:   10  -0.311902575654250E-01   0.964735415483639E-04   0.160964E-01   0.326069E+00   0.325297E+03  -0.328918E-16
   LPB:   11  -0.311902569399017E-01   0.758422490122476E-04   0.173892E-01   0.299591E+00   0.716377E+03  -0.327228E-16
   LPB:   12  -0.311902565689901E-01   0.677035100346570E-04   0.194412E-01   0.530376E+00   0.574410E+03  -0.321145E-16
    LS:    0  -0.311902565685141E-01   0.438504748880020E-06   0.877008545655809E-06
 resid(G=0) =  -3.209677693373210E-013
  NLPB:    1  -0.311902565685141E-01   0.677026838398149E-04
  Finished solving NLPB equations
 End minimization
 Ecorr=   1984.86264827266     
 A_corr=  0.179726936908869     
 Ecorr_band=  -1984.68292133575     
 End Solvation calculations
RMM:  24    -0.195273962035E+03   -0.64954E-05   -0.15763E-06  6400   0.102E-03    0.129E-03
deltaQ =   3.180214E-06
 Dsol_rc =      -0.01007584     -0.00565635     -0.12242623
 Dele =       0.00000000      0.00000000      0.00100333
alpha =   6.000000E-01
DIPOLC =       0.00000000      0.00000000     -0.12127629
ZVAL =  -1.212763E+00
deltaQ =   3.180214E-06
 Dsol_rc =      -0.01007584     -0.00565635     -0.12242623
 Dele =       0.00000000      0.00000000      0.00100333
alpha =   6.000000E-01
DIPOLC =       0.00000000      0.00000000     -0.12127629
ZVAL =  -1.212763E+00
deltaQ =   3.180214E-06
deltaQ =   3.180214E-06
 Dsol_rc =      -0.01007584     -0.00565635     -0.12242623
 Dele =       0.00000000      0.00000000      0.00100333
alpha =   6.000000E-01
DIPOLC =       0.00000000      0.00000000     -0.12127629
ZVAL =  -1.212763E+00
deltaQ =   3.180214E-06
 Dsol_rc =      -0.01007584     -0.00565635     -0.12242623
 Dele =       0.00000000      0.00000000      0.00100333
alpha =   6.000000E-01
DIPOLC =       0.00000000      0.00000000     -0.12127629
ZVAL =  -1.212763E+00
deltaQ =   3.180214E-06
 Dsol_rc =      -0.01007584     -0.00565635     -0.12242623
 Dele =       0.00000000      0.00000000      0.00100333
alpha =   6.000000E-01
DIPOLC =       0.00000000      0.00000000     -0.12127629
ZVAL =  -1.212763E+00
deltaQ =   3.180214E-06
 Dsol_rc =      -0.01007584     -0.00565635     -0.12242623
 Dele =       0.00000000      0.00000000      0.00100333
alpha =   6.000000E-01
DIPOLC =       0.00000000      0.00000000     -0.12127629
ZVAL =  -1.212763E+00
deltaQ =   3.180214E-06
 Dsol_rc =      -0.01007584     -0.00565635     -0.12242623
 Dele =       0.00000000      0.00000000      0.00100333
alpha =   6.000000E-01
DIPOLC =       0.00000000      0.00000000     -0.12127629
ZVAL =  -1.212763E+00
deltaQ =   3.180214E-06
 Dsol_rc =      -0.01007584     -0.00565635     -0.12242623
 Dele =       0.00000000      0.00000000      0.00100333
alpha =   6.000000E-01
DIPOLC =       0.00000000      0.00000000     -0.12127629
ZVAL =  -1.212763E+00
deltaQ =   3.180214E-06
 Dsol_rc =      -0.01007584     -0.00565635     -0.12242623
 Dele =       0.00000000      0.00000000      0.00100333
alpha =   6.000000E-01
DIPOLC =       0.00000000      0.00000000     -0.12127629
ZVAL =  -1.212763E+00
deltaQ =   3.180214E-06
 Dsol_rc =      -0.01007584     -0.00565635     -0.12242623
 Dele =       0.00000000      0.00000000      0.00100333
alpha =   6.000000E-01
DIPOLC =       0.00000000      0.00000000     -0.12127629
ZVAL =  -1.212763E+00
deltaQ =   3.180214E-06
 Dsol_rc =      -0.01007584     -0.00565635     -0.12242623
 Dele =       0.00000000      0.00000000      0.00100333
alpha =   6.000000E-01
DIPOLC =       0.00000000      0.00000000     -0.12127629
ZVAL =  -1.212763E+00
deltaQ =   3.180214E-06
 Dsol_rc =      -0.01007584     -0.00565635     -0.12242623
 Dele =       0.00000000      0.00000000      0.00100333
alpha =   6.000000E-01
DIPOLC =       0.00000000      0.00000000     -0.12127629
ZVAL =  -1.212763E+00
deltaQ =   3.180214E-06
 Dsol_rc =      -0.01007584     -0.00565635     -0.12242623
 Dele =       0.00000000      0.00000000      0.00100333
alpha =   6.000000E-01
DIPOLC =       0.00000000      0.00000000     -0.12127629
ZVAL =  -1.212763E+00
deltaQ =   3.180214E-06
 Dsol_rc =      -0.01007584     -0.00565635     -0.12242623
 Dele =       0.00000000      0.00000000      0.00100333
alpha =   6.000000E-01
DIPOLC =       0.00000000      0.00000000     -0.12127629
ZVAL =  -1.212763E+00
deltaQ =   3.180214E-06
 Dsol_rc =      -0.01007584     -0.00565635     -0.12242623
 Dele =       0.00000000      0.00000000      0.00100333
alpha =   6.000000E-01
DIPOLC =       0.00000000      0.00000000     -0.12127629
ZVAL =  -1.212763E+00
 Dsol_rc =      -0.01007584     -0.00565635     -0.12242623
 Dele =       0.00000000      0.00000000      0.00100333
alpha =   6.000000E-01
DIPOLC =       0.00000000      0.00000000     -0.12127629
ZVAL =  -1.212763E+00
 Begin Solvation calculations
  rms_SCF =   1.395558430526226E-003 tol =   1.395558430526226E-004
 Begin minimization
 Creating dielectric and ionic cavities
  area:      239.951352595800     
  volume:    3289.82420127081     
  A_cav:    0.210917238931708     
  qion_max:     4.88235654204040     
  Solving nonlinear dielectric/ionic screening model
  Starting outer loop
        iter                  A_solv                     rms
 resid(G=0) =  -8.506423631490282E-010
  NLPB:    0  -0.312092942053986E-01   0.286235096888688E-03
   LPB:       -0.312092942053986E-01   0.286235096887424E-03
   LPB:    0  -0.312092942053986E-01   0.286234326067142E-03  -0.102616E-10   0.000000E+00   0.828960E+02  -0.850642E-09
   LPB:    1  -0.312092885659814E-01   0.521516144702596E-03   0.398182E-01   0.000000E+00   0.771386E+02   0.242796E-25
   LPB:    2  -0.312092757964328E-01   0.116464992441877E-02   0.343509E-01   0.262473E+01   0.236724E+02   0.225036E-17
   LPB:    3  -0.312092530987685E-01   0.215913968402031E-02   0.185821E-01   0.328585E+01   0.846390E+01   0.426255E-17
   LPB:    4  -0.312092240973664E-01   0.144616061812055E-02   0.111494E-01   0.212953E+01   0.550827E+01   0.225143E-16
   LPB:    5  -0.312092119853117E-01   0.595593160912760E-03   0.947098E-02   0.491648E+00   0.114719E+02   0.408196E-16
   LPB:    6  -0.312092068788965E-01   0.248607414551481E-03   0.120558E-01   0.331206E+00   0.347253E+02   0.451712E-16
   LPB:    7  -0.312092028699934E-01   0.285880067150235E-03   0.220240E-01   0.429742E+00   0.611701E+02   0.482855E-16
   LPB:    8  -0.312092000641026E-01   0.144960627128023E-03   0.211214E-01   0.729825E+00   0.286025E+02   0.501668E-16
   LPB:    9  -0.312091989821141E-01   0.611843939449358E-04   0.184585E-01   0.441243E+00   0.987255E+02   0.468905E-16
   LPB:   10  -0.312091987201287E-01   0.501183916836178E-04   0.157587E-01   0.283616E+00   0.306283E+03   0.462028E-16
   LPB:   11  -0.312091985716730E-01   0.381604927591426E-04   0.195507E-01   0.456750E+00   0.491734E+03   0.460382E-16
   LPB:   12  -0.312091984211125E-01   0.373646536461336E-04   0.257695E-01   0.769433E+00   0.473285E+03   0.460245E-16
   LPB:   13  -0.312091983291832E-01   0.218983511311522E-04   0.215166E-01   0.731265E+00   0.149094E+03   0.460807E-16
    LS:    0  -0.312091983290567E-01   0.958763418552888E-07   0.191752430694348E-06
 resid(G=0) =   4.301920673394034E-015
  NLPB:    1  -0.312091983290567E-01   0.218990873145699E-04
  Finished solving NLPB equations
 End minimization
 Ecorr=   1984.55559016750     
 A_corr=  0.179708040602651     
 Ecorr_band=  -1984.37588212690     
 End Solvation calculations
RMM:  25    -0.195273960172E+03    0.18634E-05   -0.70404E-07  5775   0.754E-04    0.215E-03
deltaQ =   3.180248E-06
 Dsol_rc =      -0.00996597     -0.00565624     -0.12324530
 Dele =       0.00000000      0.00000000      0.00299175
alpha =   3.000000E-01
DIPOLC =       0.00000000      0.00000000     -0.12096947
ZVAL =  -1.209695E+00
deltaQ =   3.180248E-06
 Dsol_rc =      -0.00996597     -0.00565624     -0.12324530
 Dele =       0.00000000      0.00000000      0.00299175
alpha =   3.000000E-01
DIPOLC =       0.00000000      0.00000000     -0.12096947
ZVAL =  -1.209695E+00
deltaQ =   3.180248E-06
 Dsol_rc =      -0.00996597     -0.00565624     -0.12324530
 Dele =       0.00000000      0.00000000      0.00299175
alpha =   3.000000E-01
DIPOLC =       0.00000000      0.00000000     -0.12096947
ZVAL =  -1.209695E+00
deltaQ =   3.180248E-06
 Dsol_rc =      -0.00996597     -0.00565624     -0.12324530
 Dele =       0.00000000      0.00000000      0.00299175
alpha =   3.000000E-01
DIPOLC =       0.00000000      0.00000000     -0.12096947
ZVAL =  -1.209695E+00
deltaQ =   3.180248E-06
 Dsol_rc =      -0.00996597     -0.00565624     -0.12324530
 Dele =       0.00000000      0.00000000      0.00299175
alpha =   3.000000E-01
DIPOLC =       0.00000000      0.00000000     -0.12096947
ZVAL =  -1.209695E+00
deltaQ =   3.180248E-06
 Dsol_rc =      -0.00996597     -0.00565624     -0.12324530
 Dele =       0.00000000      0.00000000      0.00299175
alpha =   3.000000E-01
DIPOLC =       0.00000000      0.00000000     -0.12096947
ZVAL =  -1.209695E+00
deltaQ =   3.180248E-06
deltaQ =   3.180248E-06
 Dsol_rc =      -0.00996597     -0.00565624     -0.12324530
 Dele =       0.00000000      0.00000000      0.00299175
alpha =   3.000000E-01
DIPOLC =       0.00000000      0.00000000     -0.12096947
ZVAL =  -1.209695E+00
deltaQ =   3.180248E-06
 Dsol_rc =      -0.00996597     -0.00565624     -0.12324530
 Dele =       0.00000000      0.00000000      0.00299175
alpha =   3.000000E-01
DIPOLC =       0.00000000      0.00000000     -0.12096947
ZVAL =  -1.209695E+00
deltaQ =   3.180248E-06
 Dsol_rc =      -0.00996597     -0.00565624     -0.12324530
 Dele =       0.00000000      0.00000000      0.00299175
alpha =   3.000000E-01
DIPOLC =       0.00000000      0.00000000     -0.12096947
ZVAL =  -1.209695E+00
deltaQ =   3.180248E-06
 Dsol_rc =      -0.00996597     -0.00565624     -0.12324530
 Dele =       0.00000000      0.00000000      0.00299175
alpha =   3.000000E-01
DIPOLC =       0.00000000      0.00000000     -0.12096947
ZVAL =  -1.209695E+00
deltaQ =   3.180248E-06
 Dsol_rc =      -0.00996597     -0.00565624     -0.12324530
 Dele =       0.00000000      0.00000000      0.00299175
alpha =   3.000000E-01
DIPOLC =       0.00000000      0.00000000     -0.12096947
ZVAL =  -1.209695E+00
deltaQ =   3.180248E-06
 Dsol_rc =      -0.00996597     -0.00565624     -0.12324530
 Dele =       0.00000000      0.00000000      0.00299175
alpha =   3.000000E-01
DIPOLC =       0.00000000      0.00000000     -0.12096947
ZVAL =  -1.209695E+00
deltaQ =   3.180248E-06
 Dsol_rc =      -0.00996597     -0.00565624     -0.12324530
 Dele =       0.00000000      0.00000000      0.00299175
alpha =   3.000000E-01
DIPOLC =       0.00000000      0.00000000     -0.12096947
ZVAL =  -1.209695E+00
deltaQ =   3.180248E-06
 Dsol_rc =      -0.00996597     -0.00565624     -0.12324530
 Dele =       0.00000000      0.00000000      0.00299175
alpha =   3.000000E-01
DIPOLC =       0.00000000      0.00000000     -0.12096947
ZVAL =  -1.209695E+00
deltaQ =   3.180248E-06
 Dsol_rc =      -0.00996597     -0.00565624     -0.12324530
 Dele =       0.00000000      0.00000000      0.00299175
alpha =   3.000000E-01
DIPOLC =       0.00000000      0.00000000     -0.12096947
ZVAL =  -1.209695E+00
 Dsol_rc =      -0.00996597     -0.00565624     -0.12324530
 Dele =       0.00000000      0.00000000      0.00299175
alpha =   3.000000E-01
DIPOLC =       0.00000000      0.00000000     -0.12096947
ZVAL =  -1.209695E+00
 Begin Solvation calculations
  rms_SCF =   1.395558430526226E-003 tol =   1.395558430526226E-004
 Begin minimization
 Creating dielectric and ionic cavities
  area:      239.951410530253     
  volume:    3289.82117885699     
  A_cav:    0.210917289856093     
  qion_max:     4.88236514192498     
  Solving nonlinear dielectric/ionic screening model
  Starting outer loop
        iter                  A_solv                     rms
 resid(G=0) =  -9.379362954457646E-010
  NLPB:    0  -0.312208611871826E-01   0.268038066002575E-03
   LPB:       -0.312208611871826E-01   0.268038066000934E-03
   LPB:    0  -0.312208611871826E-01   0.268038777254696E-03  -0.113146E-10   0.000000E+00   0.828962E+02  -0.937936E-09
   LPB:    1  -0.312208404341708E-01   0.116010687320755E-02   0.109886E+00   0.000000E+00   0.394861E+02  -0.715484E-26
   LPB:    2  -0.312207913109766E-01   0.306033385406983E-02   0.404916E-01   0.642367E+01   0.414531E+02   0.404109E-17
   LPB:    3  -0.312207286477671E-01   0.168856115149213E-02   0.103151E-01   0.500745E+01   0.300606E+02   0.144439E-16
   LPB:    4  -0.312207065379555E-01   0.119754575190668E-02   0.786108E-02   0.462983E+00   0.681423E+02   0.261122E-16
   LPB:    5  -0.312206992330493E-01   0.315273973555952E-03   0.928166E-02   0.279825E+00   0.133969E+03   0.285226E-16
   LPB:    6  -0.312206970086024E-01   0.134828067426377E-03   0.149250E-01   0.189373E+00   0.133913E+03   0.278807E-16
   LPB:    7  -0.312206961705561E-01   0.865187542473784E-04   0.189152E-01   0.297270E+00   0.448304E+03   0.284771E-16
   LPB:    8  -0.312206957885956E-01   0.737116051350201E-04   0.162720E-01   0.529808E+00   0.460131E+03   0.286148E-16
   LPB:    9  -0.312206955427052E-01   0.392614210525457E-04   0.214791E-01   0.487696E+00   0.279902E+03   0.286662E-16
   LPB:   10  -0.312206954169108E-01   0.203906783730146E-04   0.196419E-01   0.559439E+00   0.102266E+04   0.290513E-16
    LS:    0  -0.312206954169424E-01   0.165770240236063E-06   0.331540543742410E-06
 resid(G=0) =  -3.891358721662191E-015
  NLPB:    1  -0.312206954169424E-01   0.203907126674035E-04
  Finished solving NLPB equations
 End minimization
 Ecorr=   1984.39773222994     
 A_corr=  0.179696594439150     
 Ecorr_band=  -1984.21803563550     
 End Solvation calculations
RMM:  26    -0.195273960051E+03    0.12122E-06   -0.21978E-07  4369   0.467E-04    0.734E-04
deltaQ =   3.180237E-06
 Dsol_rc =      -0.00998799     -0.00565629     -0.12390658
 Dele =       0.00000000      0.00000000      0.00424501
alpha =   6.000000E-01
DIPOLC =       0.00000000      0.00000000     -0.12018473
ZVAL =  -1.201847E+00
deltaQ =   3.180237E-06
deltaQ =   3.180237E-06
 Dsol_rc =      -0.00998799     -0.00565629     -0.12390658
 Dele =       0.00000000      0.00000000      0.00424501
alpha =   6.000000E-01
DIPOLC =       0.00000000      0.00000000     -0.12018473
ZVAL =  -1.201847E+00
deltaQ =   3.180237E-06
 Dsol_rc =      -0.00998799     -0.00565629     -0.12390658
 Dele =       0.00000000      0.00000000      0.00424501
alpha =   6.000000E-01
DIPOLC =       0.00000000      0.00000000     -0.12018473
ZVAL =  -1.201847E+00
deltaQ =   3.180237E-06
 Dsol_rc =      -0.00998799     -0.00565629     -0.12390658
 Dele =       0.00000000      0.00000000      0.00424501
alpha =   6.000000E-01
DIPOLC =       0.00000000      0.00000000     -0.12018473
ZVAL =  -1.201847E+00
deltaQ =   3.180237E-06
 Dsol_rc =      -0.00998799     -0.00565629     -0.12390658
 Dele =       0.00000000      0.00000000      0.00424501
alpha =   6.000000E-01
DIPOLC =       0.00000000      0.00000000     -0.12018473
ZVAL =  -1.201847E+00
deltaQ =   3.180237E-06
 Dsol_rc =      -0.00998799     -0.00565629     -0.12390658
 Dele =       0.00000000      0.00000000      0.00424501
alpha =   6.000000E-01
DIPOLC =       0.00000000      0.00000000     -0.12018473
ZVAL =  -1.201847E+00
deltaQ =   3.180237E-06
 Dsol_rc =      -0.00998799     -0.00565629     -0.12390658
 Dele =       0.00000000      0.00000000      0.00424501
alpha =   6.000000E-01
DIPOLC =       0.00000000      0.00000000     -0.12018473
ZVAL =  -1.201847E+00
deltaQ =   3.180237E-06
 Dsol_rc =      -0.00998799     -0.00565629     -0.12390658
 Dele =       0.00000000      0.00000000      0.00424501
alpha =   6.000000E-01
DIPOLC =       0.00000000      0.00000000     -0.12018473
ZVAL =  -1.201847E+00
deltaQ =   3.180237E-06
 Dsol_rc =      -0.00998799     -0.00565629     -0.12390658
 Dele =       0.00000000      0.00000000      0.00424501
alpha =   6.000000E-01
DIPOLC =       0.00000000      0.00000000     -0.12018473
ZVAL =  -1.201847E+00
deltaQ =   3.180237E-06
 Dsol_rc =      -0.00998799     -0.00565629     -0.12390658
 Dele =       0.00000000      0.00000000      0.00424501
alpha =   6.000000E-01
DIPOLC =       0.00000000      0.00000000     -0.12018473
ZVAL =  -1.201847E+00
deltaQ =   3.180237E-06
 Dsol_rc =      -0.00998799     -0.00565629     -0.12390658
 Dele =       0.00000000      0.00000000      0.00424501
alpha =   6.000000E-01
DIPOLC =       0.00000000      0.00000000     -0.12018473
ZVAL =  -1.201847E+00
deltaQ =   3.180237E-06
 Dsol_rc =      -0.00998799     -0.00565629     -0.12390658
 Dele =       0.00000000      0.00000000      0.00424501
alpha =   6.000000E-01
DIPOLC =       0.00000000      0.00000000     -0.12018473
ZVAL =  -1.201847E+00
deltaQ =   3.180237E-06
 Dsol_rc =      -0.00998799     -0.00565629     -0.12390658
 Dele =       0.00000000      0.00000000      0.00424501
alpha =   6.000000E-01
DIPOLC =       0.00000000      0.00000000     -0.12018473
ZVAL =  -1.201847E+00
deltaQ =   3.180237E-06
 Dsol_rc =      -0.00998799     -0.00565629     -0.12390658
 Dele =       0.00000000      0.00000000      0.00424501
alpha =   6.000000E-01
DIPOLC =       0.00000000      0.00000000     -0.12018473
ZVAL =  -1.201847E+00
deltaQ =   3.180237E-06
 Dsol_rc =      -0.00998799     -0.00565629     -0.12390658
 Dele =       0.00000000      0.00000000      0.00424501
alpha =   6.000000E-01
DIPOLC =       0.00000000      0.00000000     -0.12018473
ZVAL =  -1.201847E+00
 Dsol_rc =      -0.00998799     -0.00565629     -0.12390658
 Dele =       0.00000000      0.00000000      0.00424501
alpha =   6.000000E-01
DIPOLC =       0.00000000      0.00000000     -0.12018473
ZVAL =  -1.201847E+00
 Begin Solvation calculations
  rms_SCF =   1.311608673535088E-003 tol =   1.311608673535088E-004
 Begin minimization
 Creating dielectric and ionic cavities
  area:      239.951438581316     
  volume:    3289.81922246928     
  A_cav:    0.210917314512977     
  qion_max:     4.88237082892132     
  Solving nonlinear dielectric/ionic screening model
  Starting outer loop
        iter                  A_solv                     rms
 resid(G=0) =  -4.763525187433224E-010
  NLPB:    0  -0.312285609659836E-01   0.427273406349564E-03
   LPB:       -0.312285609659836E-01   0.427273406349298E-03
   LPB:    0  -0.312285609659836E-01   0.427273715620335E-03  -0.574637E-11   0.000000E+00   0.828963E+02  -0.476353E-09
   LPB:    1  -0.312282686939763E-01   0.682585431510521E-02   0.326947E+00   0.000000E+00   0.271324E+02  -0.935478E-26
   LPB:    2  -0.312279940875343E-01   0.338361476506971E-02   0.143421E-01   0.214184E+02   0.599657E+02  -0.134965E-16
   LPB:    3  -0.312277096868631E-01   0.916101088640902E-03   0.159230E-01   0.932844E+00   0.628055E+02  -0.729890E-16
   LPB:    4  -0.312276959830428E-01   0.291550068781853E-03   0.983233E-02   0.780332E-01   0.307582E+03  -0.118482E-15
   LPB:    5  -0.312276935730717E-01   0.286429970873706E-03   0.134361E-01   0.128692E+00   0.269611E+03  -0.120887E-15
   LPB:    6  -0.312276926531618E-01   0.325085603635137E-03   0.955625E-02   0.536686E+00   0.302541E+03  -0.121388E-15
   LPB:    7  -0.312276920010992E-01   0.810998855502185E-04   0.843343E-02   0.803207E+00   0.475730E+03  -0.121448E-15
   LPB:    8  -0.312276916747509E-01   0.344045153849645E-04   0.173320E-01   0.243528E+00   0.626288E+03  -0.121393E-15
    LS:    0  -0.312276916747428E-01   0.869291240823689E-06   0.173858246544430E-05
 resid(G=0) =  -3.420848606011488E-014
  NLPB:    1  -0.312276916747428E-01   0.344048452494621E-04
  Finished solving NLPB equations
 End minimization
 Ecorr=   1984.25933113713     
 A_corr=  0.179689622838234     
 Ecorr_band=  -1984.07964151429     
 End Solvation calculations
RMM:  27    -0.195273965370E+03   -0.53193E-05   -0.35120E-07  4943   0.597E-04    0.154E-03
deltaQ =   3.180224E-06
 Dsol_rc =      -0.01027434     -0.00565643     -0.12484425
 Dele =       0.00000000      0.00000000      0.00471791
alpha =   6.000000E-01
DIPOLC =       0.00000000      0.00000000     -0.12014970
ZVAL =  -1.201497E+00
deltaQ =   3.180224E-06
 Dsol_rc =      -0.01027434     -0.00565643     -0.12484425
 Dele =       0.00000000      0.00000000      0.00471791
alpha =   6.000000E-01
DIPOLC =       0.00000000      0.00000000     -0.12014970
ZVAL =  -1.201497E+00
deltaQ =   3.180224E-06
deltaQ =   3.180224E-06
 Dsol_rc =      -0.01027434     -0.00565643     -0.12484425
 Dele =       0.00000000      0.00000000      0.00471791
alpha =   6.000000E-01
DIPOLC =       0.00000000      0.00000000     -0.12014970
ZVAL =  -1.201497E+00
deltaQ =   3.180224E-06
 Dsol_rc =      -0.01027434     -0.00565643     -0.12484425
 Dele =       0.00000000      0.00000000      0.00471791
alpha =   6.000000E-01
DIPOLC =       0.00000000      0.00000000     -0.12014970
ZVAL =  -1.201497E+00
deltaQ =   3.180224E-06
 Dsol_rc =      -0.01027434     -0.00565643     -0.12484425
 Dele =       0.00000000      0.00000000      0.00471791
alpha =   6.000000E-01
DIPOLC =       0.00000000      0.00000000     -0.12014970
ZVAL =  -1.201497E+00
deltaQ =   3.180224E-06
 Dsol_rc =      -0.01027434     -0.00565643     -0.12484425
 Dele =       0.00000000      0.00000000      0.00471791
alpha =   6.000000E-01
DIPOLC =       0.00000000      0.00000000     -0.12014970
ZVAL =  -1.201497E+00
deltaQ =   3.180224E-06
 Dsol_rc =      -0.01027434     -0.00565643     -0.12484425
 Dele =       0.00000000      0.00000000      0.00471791
alpha =   6.000000E-01
DIPOLC =       0.00000000      0.00000000     -0.12014970
ZVAL =  -1.201497E+00
deltaQ =   3.180224E-06
 Dsol_rc =      -0.01027434     -0.00565643     -0.12484425
 Dele =       0.00000000      0.00000000      0.00471791
alpha =   6.000000E-01
DIPOLC =       0.00000000      0.00000000     -0.12014970
ZVAL =  -1.201497E+00
deltaQ =   3.180224E-06
 Dsol_rc =      -0.01027434     -0.00565643     -0.12484425
 Dele =       0.00000000      0.00000000      0.00471791
alpha =   6.000000E-01
DIPOLC =       0.00000000      0.00000000     -0.12014970
ZVAL =  -1.201497E+00
deltaQ =   3.180224E-06
 Dsol_rc =      -0.01027434     -0.00565643     -0.12484425
 Dele =       0.00000000      0.00000000      0.00471791
alpha =   6.000000E-01
DIPOLC =       0.00000000      0.00000000     -0.12014970
ZVAL =  -1.201497E+00
deltaQ =   3.180224E-06
 Dsol_rc =      -0.01027434     -0.00565643     -0.12484425
 Dele =       0.00000000      0.00000000      0.00471791
alpha =   6.000000E-01
DIPOLC =       0.00000000      0.00000000     -0.12014970
ZVAL =  -1.201497E+00
deltaQ =   3.180224E-06
 Dsol_rc =      -0.01027434     -0.00565643     -0.12484425
 Dele =       0.00000000      0.00000000      0.00471791
alpha =   6.000000E-01
DIPOLC =       0.00000000      0.00000000     -0.12014970
ZVAL =  -1.201497E+00
deltaQ =   3.180224E-06
 Dsol_rc =      -0.01027434     -0.00565643     -0.12484425
 Dele =       0.00000000      0.00000000      0.00471791
alpha =   6.000000E-01
DIPOLC =       0.00000000      0.00000000     -0.12014970
ZVAL =  -1.201497E+00
deltaQ =   3.180224E-06
 Dsol_rc =      -0.01027434     -0.00565643     -0.12484425
 Dele =       0.00000000      0.00000000      0.00471791
alpha =   6.000000E-01
DIPOLC =       0.00000000      0.00000000     -0.12014970
ZVAL =  -1.201497E+00
deltaQ =   3.180224E-06
 Dsol_rc =      -0.01027434     -0.00565643     -0.12484425
 Dele =       0.00000000      0.00000000      0.00471791
alpha =   6.000000E-01
DIPOLC =       0.00000000      0.00000000     -0.12014970
ZVAL =  -1.201497E+00
 Dsol_rc =      -0.01027434     -0.00565643     -0.12484425
 Dele =       0.00000000      0.00000000      0.00471791
alpha =   6.000000E-01
DIPOLC =       0.00000000      0.00000000     -0.12014970
ZVAL =  -1.201497E+00
 Begin Solvation calculations
  rms_SCF =   1.311608673535088E-003 tol =   1.311608673535088E-004
 Begin minimization
 Creating dielectric and ionic cavities
  area:      239.951448703727     
  volume:    3289.81873065180     
  A_cav:    0.210917323410576     
  qion_max:     4.88237227905033     
  Solving nonlinear dielectric/ionic screening model
  Starting outer loop
        iter                  A_solv                     rms
 resid(G=0) =  -9.464792366652451E-011
  NLPB:    0  -0.312282617585571E-01   0.122330886181459E-03
   LPB:       -0.312282617585571E-01   0.122330886181422E-03
   LPB:    0  -0.312282617585571E-01   0.122330854033880E-03  -0.114176E-11   0.000000E+00   0.828963E+02  -0.946479E-10
   LPB:    1  -0.312282613370143E-01   0.171809360425127E-03   0.240830E-01   0.000000E+00   0.968440E+02  -0.164279E-26
   LPB:    2  -0.312282609067032E-01   0.249387165911443E-03   0.214903E-01   0.114395E+01   0.355772E+02  -0.919962E-20
   LPB:    3  -0.312282596472079E-01   0.285582585502964E-03   0.271050E-01   0.232064E+01   0.614556E+01  -0.255235E-17
   LPB:    4  -0.312282588753534E-01   0.352078767296440E-03   0.107005E-01   0.155232E+01   0.896743E+01  -0.945050E-17
   LPB:    5  -0.312282575793333E-01   0.212503741020825E-03   0.147398E-01   0.121896E+01   0.537011E+01  -0.140714E-16
   LPB:    6  -0.312282565331281E-01   0.139912492169976E-03   0.176398E-01   0.674531E+00   0.638139E+01  -0.219635E-16
   LPB:    7  -0.312282559936310E-01   0.669619863114768E-04   0.164157E-01   0.554126E+00   0.106220E+02  -0.281752E-16
   LPB:    8  -0.312282556299884E-01   0.590970550889695E-04   0.241919E-01   0.457375E+00   0.117009E+02  -0.314115E-16
   LPB:    9  -0.312282552824198E-01   0.294644609056973E-04   0.296993E-01   0.778557E+00   0.972318E+01  -0.335615E-16
   LPB:   10  -0.312282551401580E-01   0.315805981155694E-04   0.217882E-01   0.557920E+00   0.249550E+02  -0.359044E-16
   LPB:   11  -0.312282550662410E-01   0.333969967464311E-04   0.210104E-01   0.538819E+00   0.289571E+02  -0.369854E-16
   LPB:   12  -0.312282549843562E-01   0.198545575736095E-04   0.233353E-01   0.997427E+00   0.298966E+02  -0.376702E-16
   LPB:   13  -0.312282549241930E-01   0.292669999861880E-04   0.252654E-01   0.678602E+00   0.455681E+02  -0.384309E-16
   LPB:   14  -0.312282548959780E-01   0.383988167198246E-04   0.164034E-01   0.722339E+00   0.388782E+02  -0.389556E-16
   LPB:   15  -0.312282548874652E-01   0.268710980317493E-04   0.709954E-02   0.697102E+00   0.138422E+03  -0.394842E-16
   LPB:   16  -0.312282548781918E-01   0.766174209373598E-05   0.134345E-01   0.575671E+00   0.342836E+03  -0.396698E-16
    LS:    0  -0.312282548781607E-01   0.688039640539539E-08   0.137607305609566E-07
 resid(G=0) =  -8.735353376244665E-015
  NLPB:    1  -0.312282548781607E-01   0.766166886438557E-05
  Finished solving NLPB equations
 End minimization
 Ecorr=   1984.13569739975     
 A_corr=  0.179689068532415     
 Ecorr_band=  -1983.95600833122     
 End Solvation calculations
RMM:  28    -0.195273966079E+03   -0.70841E-06   -0.39188E-08  3895   0.273E-04    0.759E-04
deltaQ =   3.180253E-06
 Dsol_rc =      -0.01015006     -0.00565646     -0.12517151
 Dele =       0.00000000      0.00000000      0.00560438
alpha =   6.000000E-01
DIPOLC =       0.00000000      0.00000000     -0.11980016
ZVAL =  -1.198002E+00
deltaQ =   3.180253E-06
 Dsol_rc =      -0.01015006     -0.00565646     -0.12517151
 Dele =       0.00000000      0.00000000      0.00560438
alpha =   6.000000E-01
DIPOLC =       0.00000000      0.00000000     -0.11980016
ZVAL =  -1.198002E+00
deltaQ =   3.180253E-06
deltaQ =   3.180253E-06
 Dsol_rc =      -0.01015006     -0.00565646     -0.12517151
 Dele =       0.00000000      0.00000000      0.00560438
alpha =   6.000000E-01
DIPOLC =       0.00000000      0.00000000     -0.11980016
ZVAL =  -1.198002E+00
deltaQ =   3.180253E-06
 Dsol_rc =      -0.01015006     -0.00565646     -0.12517151
 Dele =       0.00000000      0.00000000      0.00560438
alpha =   6.000000E-01
DIPOLC =       0.00000000      0.00000000     -0.11980016
ZVAL =  -1.198002E+00
deltaQ =   3.180253E-06
 Dsol_rc =      -0.01015006     -0.00565646     -0.12517151
 Dele =       0.00000000      0.00000000      0.00560438
alpha =   6.000000E-01
DIPOLC =       0.00000000      0.00000000     -0.11980016
ZVAL =  -1.198002E+00
deltaQ =   3.180253E-06
 Dsol_rc =      -0.01015006     -0.00565646     -0.12517151
 Dele =       0.00000000      0.00000000      0.00560438
alpha =   6.000000E-01
DIPOLC =       0.00000000      0.00000000     -0.11980016
ZVAL =  -1.198002E+00
deltaQ =   3.180253E-06
 Dsol_rc =      -0.01015006     -0.00565646     -0.12517151
 Dele =       0.00000000      0.00000000      0.00560438
alpha =   6.000000E-01
DIPOLC =       0.00000000      0.00000000     -0.11980016
ZVAL =  -1.198002E+00
deltaQ =   3.180253E-06
 Dsol_rc =      -0.01015006     -0.00565646     -0.12517151
 Dele =       0.00000000      0.00000000      0.00560438
alpha =   6.000000E-01
DIPOLC =       0.00000000      0.00000000     -0.11980016
ZVAL =  -1.198002E+00
deltaQ =   3.180253E-06
 Dsol_rc =      -0.01015006     -0.00565646     -0.12517151
 Dele =       0.00000000      0.00000000      0.00560438
alpha =   6.000000E-01
DIPOLC =       0.00000000      0.00000000     -0.11980016
ZVAL =  -1.198002E+00
deltaQ =   3.180253E-06
 Dsol_rc =      -0.01015006     -0.00565646     -0.12517151
 Dele =       0.00000000      0.00000000      0.00560438
alpha =   6.000000E-01
DIPOLC =       0.00000000      0.00000000     -0.11980016
ZVAL =  -1.198002E+00
deltaQ =   3.180253E-06
 Dsol_rc =      -0.01015006     -0.00565646     -0.12517151
 Dele =       0.00000000      0.00000000      0.00560438
alpha =   6.000000E-01
DIPOLC =       0.00000000      0.00000000     -0.11980016
ZVAL =  -1.198002E+00
deltaQ =   3.180253E-06
 Dsol_rc =      -0.01015006     -0.00565646     -0.12517151
 Dele =       0.00000000      0.00000000      0.00560438
alpha =   6.000000E-01
DIPOLC =       0.00000000      0.00000000     -0.11980016
ZVAL =  -1.198002E+00
deltaQ =   3.180253E-06
 Dsol_rc =      -0.01015006     -0.00565646     -0.12517151
 Dele =       0.00000000      0.00000000      0.00560438
alpha =   6.000000E-01
DIPOLC =       0.00000000      0.00000000     -0.11980016
ZVAL =  -1.198002E+00
deltaQ =   3.180253E-06
 Dsol_rc =      -0.01015006     -0.00565646     -0.12517151
 Dele =       0.00000000      0.00000000      0.00560438
alpha =   6.000000E-01
DIPOLC =       0.00000000      0.00000000     -0.11980016
ZVAL =  -1.198002E+00
deltaQ =   3.180253E-06
 Dsol_rc =      -0.01015006     -0.00565646     -0.12517151
 Dele =       0.00000000      0.00000000      0.00560438
alpha =   6.000000E-01
DIPOLC =       0.00000000      0.00000000     -0.11980016
ZVAL =  -1.198002E+00
 Dsol_rc =      -0.01015006     -0.00565646     -0.12517151
 Dele =       0.00000000      0.00000000      0.00560438
alpha =   6.000000E-01
DIPOLC =       0.00000000      0.00000000     -0.11980016
ZVAL =  -1.198002E+00
 Begin Solvation calculations
  rms_SCF =   1.311608673535088E-003 tol =   1.311608673535088E-004
 Begin minimization
 Creating dielectric and ionic cavities
  area:      239.951460770811     
  volume:    3289.81783795170     
  A_cav:    0.210917334017543     
  qion_max:     4.88237496971937     
  Solving nonlinear dielectric/ionic screening model
  Starting outer loop
        iter                  A_solv                     rms
 resid(G=0) =  -3.658408505580801E-011
  NLPB:    0  -0.312279308821452E-01   0.289235149645186E-03
   LPB:       -0.312279308821452E-01   0.289235149645183E-03
   LPB:    0  -0.312279308821452E-01   0.289235141518333E-03  -0.441323E-12   0.000000E+00   0.828964E+02  -0.365841E-10
   LPB:    1  -0.312279109063693E-01   0.190708755970437E-02   0.981319E-01   0.000000E+00   0.494332E+02  -0.171600E-26
   LPB:    2  -0.312278725908821E-01   0.152968076487518E-02   0.219082E-01   0.859161E+01   0.622422E+02   0.484690E-18
   LPB:    3  -0.312277707512533E-01   0.132575791992404E-02   0.283145E-01   0.205655E+01   0.158051E+02  -0.162013E-17
   LPB:    4  -0.312277551063738E-01   0.105931620296100E-02   0.917484E-02   0.474095E+00   0.472313E+02   0.350806E-17
   LPB:    5  -0.312277516329540E-01   0.278834981560498E-03   0.526464E-02   0.386915E+00   0.155463E+03  -0.473087E-18
   LPB:    6  -0.312277505019041E-01   0.454955499770816E-04   0.126974E-01   0.135013E+00   0.165104E+03  -0.184634E-17
   LPB:    7  -0.312277500125479E-01   0.282745196490241E-04   0.286556E-01   0.191712E+00   0.101704E+04  -0.586398E-18
    LS:    0  -0.312277500126474E-01   0.180869497809488E-06   0.361739194738920E-06
 resid(G=0) =   2.595761858904073E-014
  NLPB:    1  -0.312277500126474E-01   0.282745583561652E-04
  Finished solving NLPB equations
 End minimization
 Ecorr=   1983.92321593266     
 A_corr=  0.179689584004895     
 Ecorr_band=  -1983.74352634865     
 End Solvation calculations
RMM:  29    -0.195273969623E+03   -0.35448E-05   -0.63617E-08  4015   0.328E-04    0.358E-04
deltaQ =   3.180236E-06
 Dsol_rc =      -0.01009642     -0.00565639     -0.12596520
 Dele =       0.00000000      0.00000000      0.00603083
alpha =   6.000000E-01
DIPOLC =       0.00000000      0.00000000     -0.11988068
ZVAL =  -1.198807E+00
deltaQ =   3.180236E-06
 Dsol_rc =      -0.01009642     -0.00565639     -0.12596520
 Dele =       0.00000000      0.00000000      0.00603083
alpha =   6.000000E-01
DIPOLC =       0.00000000      0.00000000     -0.11988068
ZVAL =  -1.198807E+00
deltaQ =   3.180236E-06
 Dsol_rc =      -0.01009642     -0.00565639     -0.12596520
 Dele =       0.00000000      0.00000000      0.00603083
alpha =   6.000000E-01
DIPOLC =       0.00000000      0.00000000     -0.11988068
ZVAL =  -1.198807E+00
deltaQ =   3.180236E-06
deltaQ =   3.180236E-06
 Dsol_rc =      -0.01009642     -0.00565639     -0.12596520
 Dele =       0.00000000      0.00000000      0.00603083
alpha =   6.000000E-01
DIPOLC =       0.00000000      0.00000000     -0.11988068
ZVAL =  -1.198807E+00
deltaQ =   3.180236E-06
 Dsol_rc =      -0.01009642     -0.00565639     -0.12596520
 Dele =       0.00000000      0.00000000      0.00603083
alpha =   6.000000E-01
DIPOLC =       0.00000000      0.00000000     -0.11988068
ZVAL =  -1.198807E+00
deltaQ =   3.180236E-06
 Dsol_rc =      -0.01009642     -0.00565639     -0.12596520
 Dele =       0.00000000      0.00000000      0.00603083
alpha =   6.000000E-01
DIPOLC =       0.00000000      0.00000000     -0.11988068
ZVAL =  -1.198807E+00
deltaQ =   3.180236E-06
 Dsol_rc =      -0.01009642     -0.00565639     -0.12596520
 Dele =       0.00000000      0.00000000      0.00603083
alpha =   6.000000E-01
DIPOLC =       0.00000000      0.00000000     -0.11988068
ZVAL =  -1.198807E+00
deltaQ =   3.180236E-06
 Dsol_rc =      -0.01009642     -0.00565639     -0.12596520
 Dele =       0.00000000      0.00000000      0.00603083
alpha =   6.000000E-01
DIPOLC =       0.00000000      0.00000000     -0.11988068
ZVAL =  -1.198807E+00
deltaQ =   3.180236E-06
 Dsol_rc =      -0.01009642     -0.00565639     -0.12596520
 Dele =       0.00000000      0.00000000      0.00603083
alpha =   6.000000E-01
DIPOLC =       0.00000000      0.00000000     -0.11988068
ZVAL =  -1.198807E+00
deltaQ =   3.180236E-06
 Dsol_rc =      -0.01009642     -0.00565639     -0.12596520
 Dele =       0.00000000      0.00000000      0.00603083
alpha =   6.000000E-01
DIPOLC =       0.00000000      0.00000000     -0.11988068
ZVAL =  -1.198807E+00
deltaQ =   3.180236E-06
 Dsol_rc =      -0.01009642     -0.00565639     -0.12596520
 Dele =       0.00000000      0.00000000      0.00603083
alpha =   6.000000E-01
DIPOLC =       0.00000000      0.00000000     -0.11988068
ZVAL =  -1.198807E+00
deltaQ =   3.180236E-06
 Dsol_rc =      -0.01009642     -0.00565639     -0.12596520
 Dele =       0.00000000      0.00000000      0.00603083
alpha =   6.000000E-01
DIPOLC =       0.00000000      0.00000000     -0.11988068
ZVAL =  -1.198807E+00
deltaQ =   3.180236E-06
 Dsol_rc =      -0.01009642     -0.00565639     -0.12596520
 Dele =       0.00000000      0.00000000      0.00603083
alpha =   6.000000E-01
DIPOLC =       0.00000000      0.00000000     -0.11988068
ZVAL =  -1.198807E+00
deltaQ =   3.180236E-06
 Dsol_rc =      -0.01009642     -0.00565639     -0.12596520
 Dele =       0.00000000      0.00000000      0.00603083
alpha =   6.000000E-01
DIPOLC =       0.00000000      0.00000000     -0.11988068
ZVAL =  -1.198807E+00
deltaQ =   3.180236E-06
 Dsol_rc =      -0.01009642     -0.00565639     -0.12596520
 Dele =       0.00000000      0.00000000      0.00603083
alpha =   6.000000E-01
DIPOLC =       0.00000000      0.00000000     -0.11988068
ZVAL =  -1.198807E+00
 Dsol_rc =      -0.01009642     -0.00565639     -0.12596520
 Dele =       0.00000000      0.00000000      0.00603083
alpha =   6.000000E-01
DIPOLC =       0.00000000      0.00000000     -0.11988068
ZVAL =  -1.198807E+00
 Begin Solvation calculations
  rms_SCF =   8.562766490450044E-004 tol =   8.562766490450043E-005
 Begin minimization
 Creating dielectric and ionic cavities
  area:      239.951461939279     
  volume:    3289.81714930925     
  A_cav:    0.210917335044626     
  qion_max:     4.88237704342330     
  Solving nonlinear dielectric/ionic screening model
  Starting outer loop
        iter                  A_solv                     rms
 resid(G=0) =   1.797742011522392E-010
  NLPB:    0  -0.312268923365049E-01   0.933079520025996E-04
   LPB:       -0.312268923365049E-01   0.933079520024264E-04
   LPB:    0  -0.312268923365049E-01   0.933081009242405E-04   0.216866E-11   0.000000E+00   0.828964E+02   0.179774E-09
   LPB:    1  -0.312268916819046E-01   0.174480928666096E-03   0.318255E-01   0.000000E+00   0.140951E+03  -0.101559E-25
   LPB:    2  -0.312268902418571E-01   0.294076976468046E-03   0.390307E-01   0.179378E+01   0.283376E+02   0.447855E-18
   LPB:    3  -0.312268875837139E-01   0.453305455112019E-03   0.224491E-01   0.320929E+01   0.980258E+01  -0.110707E-17
   LPB:    4  -0.312268856852280E-01   0.348423286090748E-03   0.131639E-01   0.121799E+01   0.112700E+02  -0.328795E-17
   LPB:    5  -0.312268843617679E-01   0.380455027392714E-03   0.106516E-01   0.861535E+00   0.161877E+02  -0.539519E-17
   LPB:    6  -0.312268836151999E-01   0.124496552979726E-03   0.832172E-02   0.722036E+00   0.285213E+02  -0.646808E-17
   LPB:    7  -0.312268821809564E-01   0.118857045929926E-03   0.348204E-01   0.459128E+00   0.140476E+02  -0.691886E-17
   LPB:    8  -0.312268817026645E-01   0.715313346281031E-04   0.184372E-01   0.629808E+00   0.168765E+02  -0.784094E-17
   LPB:    9  -0.312268814256701E-01   0.434089959202323E-04   0.194232E-01   0.549732E+00   0.430419E+02  -0.852003E-17
   LPB:   10  -0.312268812898324E-01   0.451985231361218E-04   0.192274E-01   0.495392E+00   0.785969E+02  -0.826084E-17
   LPB:   11  -0.312268811482421E-01   0.337575103037450E-04   0.253066E-01   0.791957E+00   0.454071E+02  -0.814759E-17
   LPB:   12  -0.312268810634506E-01   0.210435760067829E-04   0.192956E-01   0.785407E+00   0.114265E+03  -0.819564E-17
   LPB:   13  -0.312268810215724E-01   0.115830321066081E-04   0.235928E-01   0.403937E+00   0.991723E+02  -0.818811E-17
   LPB:   14  -0.312268810088272E-01   0.129072282467940E-04   0.193931E-01   0.370245E+00   0.697491E+03  -0.870586E-17
   LPB:   15  -0.312268810017200E-01   0.344665367809251E-04   0.186174E-01   0.580871E+00   0.233800E+03  -0.873702E-17
   LPB:   16  -0.312268809963263E-01   0.797924563377380E-05   0.749981E-02   0.188391E+01   0.214007E+03  -0.878045E-17
    LS:    0  -0.312268809963433E-01   0.113401615597919E-07   0.226803570914461E-07
 resid(G=0) =  -3.739230884357314E-014
  NLPB:    1  -0.312268809963433E-01   0.797926030156205E-05
  Finished solving NLPB equations
 End minimization
 Ecorr=   1983.83370306705     
 A_corr=  0.179690454048283     
 Ecorr_band=  -1983.65401261300     
 End Solvation calculations
RMM:  30    -0.195273968919E+03    0.70410E-06   -0.49669E-08  4054   0.236E-04    0.424E-04
deltaQ =   3.180103E-06
 Dsol_rc =      -0.01020725     -0.00565661     -0.12623474
 Dele =       0.00000000      0.00000000      0.00616120
alpha =   6.000000E-01
DIPOLC =       0.00000000      0.00000000     -0.11999639
ZVAL =  -1.199964E+00
deltaQ =   3.180103E-06
 Dsol_rc =      -0.01020725     -0.00565661     -0.12623474
 Dele =       0.00000000      0.00000000      0.00616120
alpha =   6.000000E-01
DIPOLC =       0.00000000      0.00000000     -0.11999639
ZVAL =  -1.199964E+00
deltaQ =   3.180103E-06
deltaQ =   3.180103E-06
 Dsol_rc =      -0.01020725     -0.00565661     -0.12623474
 Dele =       0.00000000      0.00000000      0.00616120
alpha =   6.000000E-01
DIPOLC =       0.00000000      0.00000000     -0.11999639
ZVAL =  -1.199964E+00
deltaQ =   3.180103E-06
 Dsol_rc =      -0.01020725     -0.00565661     -0.12623474
 Dele =       0.00000000      0.00000000      0.00616120
alpha =   6.000000E-01
DIPOLC =       0.00000000      0.00000000     -0.11999639
ZVAL =  -1.199964E+00
deltaQ =   3.180103E-06
 Dsol_rc =      -0.01020725     -0.00565661     -0.12623474
 Dele =       0.00000000      0.00000000      0.00616120
alpha =   6.000000E-01
DIPOLC =       0.00000000      0.00000000     -0.11999639
ZVAL =  -1.199964E+00
deltaQ =   3.180103E-06
 Dsol_rc =      -0.01020725     -0.00565661     -0.12623474
 Dele =       0.00000000      0.00000000      0.00616120
alpha =   6.000000E-01
DIPOLC =       0.00000000      0.00000000     -0.11999639
ZVAL =  -1.199964E+00
deltaQ =   3.180103E-06
 Dsol_rc =      -0.01020725     -0.00565661     -0.12623474
 Dele =       0.00000000      0.00000000      0.00616120
alpha =   6.000000E-01
DIPOLC =       0.00000000      0.00000000     -0.11999639
ZVAL =  -1.199964E+00
deltaQ =   3.180103E-06
 Dsol_rc =      -0.01020725     -0.00565661     -0.12623474
 Dele =       0.00000000      0.00000000      0.00616120
alpha =   6.000000E-01
DIPOLC =       0.00000000      0.00000000     -0.11999639
ZVAL =  -1.199964E+00
deltaQ =   3.180103E-06
 Dsol_rc =      -0.01020725     -0.00565661     -0.12623474
 Dele =       0.00000000      0.00000000      0.00616120
alpha =   6.000000E-01
DIPOLC =       0.00000000      0.00000000     -0.11999639
ZVAL =  -1.199964E+00
deltaQ =   3.180103E-06
 Dsol_rc =      -0.01020725     -0.00565661     -0.12623474
 Dele =       0.00000000      0.00000000      0.00616120
alpha =   6.000000E-01
DIPOLC =       0.00000000      0.00000000     -0.11999639
ZVAL =  -1.199964E+00
deltaQ =   3.180103E-06
 Dsol_rc =      -0.01020725     -0.00565661     -0.12623474
 Dele =       0.00000000      0.00000000      0.00616120
alpha =   6.000000E-01
DIPOLC =       0.00000000      0.00000000     -0.11999639
ZVAL =  -1.199964E+00
deltaQ =   3.180103E-06
 Dsol_rc =      -0.01020725     -0.00565661     -0.12623474
 Dele =       0.00000000      0.00000000      0.00616120
alpha =   6.000000E-01
DIPOLC =       0.00000000      0.00000000     -0.11999639
ZVAL =  -1.199964E+00
deltaQ =   3.180103E-06
 Dsol_rc =      -0.01020725     -0.00565661     -0.12623474
 Dele =       0.00000000      0.00000000      0.00616120
alpha =   6.000000E-01
DIPOLC =       0.00000000      0.00000000     -0.11999639
ZVAL =  -1.199964E+00
deltaQ =   3.180103E-06
 Dsol_rc =      -0.01020725     -0.00565661     -0.12623474
 Dele =       0.00000000      0.00000000      0.00616120
alpha =   6.000000E-01
DIPOLC =       0.00000000      0.00000000     -0.11999639
ZVAL =  -1.199964E+00
deltaQ =   3.180103E-06
 Dsol_rc =      -0.01020725     -0.00565661     -0.12623474
 Dele =       0.00000000      0.00000000      0.00616120
alpha =   6.000000E-01
DIPOLC =       0.00000000      0.00000000     -0.11999639
ZVAL =  -1.199964E+00
 Dsol_rc =      -0.01020725     -0.00565661     -0.12623474
 Dele =       0.00000000      0.00000000      0.00616120
alpha =   6.000000E-01
DIPOLC =       0.00000000      0.00000000     -0.11999639
ZVAL =  -1.199964E+00
 Begin Solvation calculations
  rms_SCF =   8.525026496702346E-004 tol =   8.525026496702346E-005
 Begin minimization
 Creating dielectric and ionic cavities
  area:      239.951459056042     
  volume:    3289.81696799054     
  A_cav:    0.210917332510261     
  qion_max:     4.88237762191065     
  Solving nonlinear dielectric/ionic screening model
  Starting outer loop
        iter                  A_solv                     rms
 resid(G=0) =  -7.321786758614522E-011
  NLPB:    0  -0.312252667153654E-01   0.504773941153246E-04
   LPB:       -0.312252667153654E-01   0.504773941152715E-04
   LPB:    0  -0.312252667153654E-01   0.504773786893116E-04  -0.883245E-12   0.000000E+00   0.828964E+02  -0.732179E-10
   LPB:    1  -0.312252622165634E-01   0.976951659357815E-03   0.241507E+00   0.000000E+00   0.605235E+02   0.471144E-27
   LPB:    2  -0.312252560619771E-01   0.648079183668070E-03   0.126363E-01   0.261464E+02   0.840412E+02  -0.202454E-18
   LPB:    3  -0.312252516435733E-01   0.589512551218430E-03   0.106194E-01   0.854254E+00   0.124669E+03   0.743662E-18
   LPB:    4  -0.312252495389429E-01   0.144809614288578E-03   0.754268E-02   0.670632E+00   0.214611E+03   0.128573E-17
   LPB:    5  -0.312252489878092E-01   0.359802977206638E-04   0.155166E-01   0.127295E+00   0.260381E+03   0.111408E-17
   LPB:    6  -0.312252488500270E-01   0.371545589027333E-04   0.193580E-01   0.200388E+00   0.356437E+03   0.167478E-17
   LPB:    7  -0.312252487826766E-01   0.226874666114236E-04   0.221518E-01   0.427169E+00   0.177895E+03   0.183157E-17
   LPB:    8  -0.312252487478760E-01   0.229035238887891E-04   0.238580E-01   0.479756E+00   0.505747E+03   0.157357E-17
   LPB:    9  -0.312252487305858E-01   0.110065984556039E-04   0.152269E-01   0.778464E+00   0.417732E+03   0.145181E-17
   LPB:   10  -0.312252487196353E-01   0.120546994332338E-04   0.235604E-01   0.409318E+00   0.442825E+03   0.138150E-17
   LPB:   11  -0.312252487140187E-01   0.620959200515908E-05   0.165547E-01   0.729957E+00   0.728794E+03   0.127501E-17
   LPB:   12  -0.312252487119084E-01   0.699514407614603E-05   0.196988E-01   0.315768E+00   0.265901E+03   0.123061E-17
   LPB:   13  -0.312252487112687E-01   0.108983585925953E-04   0.107228E-01   0.556886E+00   0.362305E+03   0.118317E-17
   LPB:   14  -0.312252487102131E-01   0.296538900581413E-05   0.130344E-01   0.135742E+01   0.297014E+03   0.118507E-17
    LS:    0  -0.312252487102761E-01   0.180050892285843E-07   0.360103045612789E-07
 resid(G=0) =  -2.986132916865626E-015
  NLPB:    1  -0.312252487102761E-01   0.296539215346178E-05
  Finished solving NLPB equations
 End minimization
 Ecorr=   1983.84756479096     
 A_corr=  0.179692083799985     
 Ecorr_band=  -1983.66787270716     
 End Solvation calculations
RMM:  31    -0.195273967952E+03    0.96732E-06   -0.47616E-09  1709   0.979E-05    0.481E-04
deltaQ =   3.180203E-06
 Dsol_rc =      -0.01013566     -0.00565664     -0.12612373
 Dele =       0.00000000      0.00000000      0.00637520
alpha =   3.000000E-01
DIPOLC =       0.00000000      0.00000000     -0.11992204
ZVAL =  -1.199220E+00
deltaQ =   3.180203E-06
 Dsol_rc =      -0.01013566     -0.00565664     -0.12612373
 Dele =       0.00000000      0.00000000      0.00637520
alpha =   3.000000E-01
DIPOLC =       0.00000000      0.00000000     -0.11992204
ZVAL =  -1.199220E+00
deltaQ =   3.180203E-06
deltaQ =   3.180203E-06
 Dsol_rc =      -0.01013566     -0.00565664     -0.12612373
 Dele =       0.00000000      0.00000000      0.00637520
alpha =   3.000000E-01
DIPOLC =       0.00000000      0.00000000     -0.11992204
ZVAL =  -1.199220E+00
deltaQ =   3.180203E-06
 Dsol_rc =      -0.01013566     -0.00565664     -0.12612373
 Dele =       0.00000000      0.00000000      0.00637520
alpha =   3.000000E-01
DIPOLC =       0.00000000      0.00000000     -0.11992204
ZVAL =  -1.199220E+00
deltaQ =   3.180203E-06
 Dsol_rc =      -0.01013566     -0.00565664     -0.12612373
 Dele =       0.00000000      0.00000000      0.00637520
alpha =   3.000000E-01
DIPOLC =       0.00000000      0.00000000     -0.11992204
ZVAL =  -1.199220E+00
deltaQ =   3.180203E-06
 Dsol_rc =      -0.01013566     -0.00565664     -0.12612373
 Dele =       0.00000000      0.00000000      0.00637520
alpha =   3.000000E-01
DIPOLC =       0.00000000      0.00000000     -0.11992204
ZVAL =  -1.199220E+00
deltaQ =   3.180203E-06
 Dsol_rc =      -0.01013566     -0.00565664     -0.12612373
 Dele =       0.00000000      0.00000000      0.00637520
alpha =   3.000000E-01
DIPOLC =       0.00000000      0.00000000     -0.11992204
ZVAL =  -1.199220E+00
deltaQ =   3.180203E-06
 Dsol_rc =      -0.01013566     -0.00565664     -0.12612373
 Dele =       0.00000000      0.00000000      0.00637520
alpha =   3.000000E-01
DIPOLC =       0.00000000      0.00000000     -0.11992204
ZVAL =  -1.199220E+00
deltaQ =   3.180203E-06
 Dsol_rc =      -0.01013566     -0.00565664     -0.12612373
 Dele =       0.00000000      0.00000000      0.00637520
alpha =   3.000000E-01
DIPOLC =       0.00000000      0.00000000     -0.11992204
ZVAL =  -1.199220E+00
deltaQ =   3.180203E-06
 Dsol_rc =      -0.01013566     -0.00565664     -0.12612373
 Dele =       0.00000000      0.00000000      0.00637520
alpha =   3.000000E-01
DIPOLC =       0.00000000      0.00000000     -0.11992204
ZVAL =  -1.199220E+00
deltaQ =   3.180203E-06
 Dsol_rc =      -0.01013566     -0.00565664     -0.12612373
 Dele =       0.00000000      0.00000000      0.00637520
alpha =   3.000000E-01
DIPOLC =       0.00000000      0.00000000     -0.11992204
ZVAL =  -1.199220E+00
deltaQ =   3.180203E-06
 Dsol_rc =      -0.01013566     -0.00565664     -0.12612373
 Dele =       0.00000000      0.00000000      0.00637520
alpha =   3.000000E-01
DIPOLC =       0.00000000      0.00000000     -0.11992204
ZVAL =  -1.199220E+00
deltaQ =   3.180203E-06
 Dsol_rc =      -0.01013566     -0.00565664     -0.12612373
 Dele =       0.00000000      0.00000000      0.00637520
alpha =   3.000000E-01
DIPOLC =       0.00000000      0.00000000     -0.11992204
ZVAL =  -1.199220E+00
deltaQ =   3.180203E-06
 Dsol_rc =      -0.01013566     -0.00565664     -0.12612373
 Dele =       0.00000000      0.00000000      0.00637520
alpha =   3.000000E-01
DIPOLC =       0.00000000      0.00000000     -0.11992204
ZVAL =  -1.199220E+00
deltaQ =   3.180203E-06
 Dsol_rc =      -0.01013566     -0.00565664     -0.12612373
 Dele =       0.00000000      0.00000000      0.00637520
alpha =   3.000000E-01
DIPOLC =       0.00000000      0.00000000     -0.11992204
ZVAL =  -1.199220E+00
 Dsol_rc =      -0.01013566     -0.00565664     -0.12612373
 Dele =       0.00000000      0.00000000      0.00637520
alpha =   3.000000E-01
DIPOLC =       0.00000000      0.00000000     -0.11992204
ZVAL =  -1.199220E+00
 Begin Solvation calculations
  rms_SCF =   8.525026496702346E-004 tol =   8.525026496702346E-005
 Begin minimization
 Creating dielectric and ionic cavities
  area:      239.951455350857     
  volume:    3289.81689048704     
  A_cav:    0.210917329253404     
  qion_max:     4.88237791103762     
  Solving nonlinear dielectric/ionic screening model
  Starting outer loop
        iter                  A_solv                     rms
 resid(G=0) =  -1.006873060201510E-011
  NLPB:    0  -0.312234378563125E-01   0.571774188224478E-04
   LPB:       -0.312234378563125E-01   0.571774188224469E-04
   LPB:    0  -0.312234378563125E-01   0.571774324107096E-04  -0.121462E-12   0.000000E+00   0.828964E+02  -0.100687E-10
   LPB:    1  -0.312234343702869E-01   0.472363960083472E-03   0.342513E+00   0.000000E+00   0.130546E+02   0.737309E-27
   LPB:    2  -0.312234306934190E-01   0.523716821171792E-03   0.151486E-01   0.238479E+02   0.115554E+02  -0.148732E-17
   LPB:    3  -0.312234286734800E-01   0.308909810626165E-03   0.860846E-02   0.966737E+00   0.209572E+02  -0.279750E-17
   LPB:    4  -0.312234282345884E-01   0.141437484287856E-03   0.601505E-02   0.310960E+00   0.826569E+02  -0.383127E-17
   LPB:    5  -0.312234280661088E-01   0.538682171934178E-04   0.118536E-01   0.194796E+00   0.935703E+02  -0.411654E-17
   LPB:    6  -0.312234279966309E-01   0.193498664524644E-04   0.142044E-01   0.344134E+00   0.817636E+02  -0.414304E-17
   LPB:    7  -0.312234279654249E-01   0.233567075065743E-04   0.204123E-01   0.312551E+00   0.313126E+03  -0.396069E-17
   LPB:    8  -0.312234279468645E-01   0.168276857996763E-04   0.192672E-01   0.630122E+00   0.182643E+03  -0.387363E-17
   LPB:    9  -0.312234279345156E-01   0.574224353486560E-05   0.227735E-01   0.562894E+00   0.263768E+03  -0.424217E-17
   LPB:   10  -0.312234279309160E-01   0.622349692439059E-05   0.209943E-01   0.316199E+00   0.217477E+03  -0.449510E-17
   LPB:   11  -0.312234279293651E-01   0.510832180489630E-05   0.167113E-01   0.541265E+00   0.412886E+03  -0.461208E-17
    LS:    0  -0.312234279295796E-01   0.992673294952784E-08   0.198538948189765E-07
 resid(G=0) =   1.948249470551302E-015
  NLPB:    1  -0.312234279295796E-01   0.510831381641414E-05
  Finished solving NLPB equations
 End minimization
 Ecorr=   1983.87809420092     
 A_corr=  0.179693901323824     
 Ecorr_band=  -1983.69840029960     
 End Solvation calculations
RMM:  32    -0.195273968399E+03   -0.44703E-06   -0.21400E-08  3653   0.179E-04    0.237E-04
deltaQ =   3.180226E-06
 Dsol_rc =      -0.01012816     -0.00565664     -0.12608965
 Dele =       0.00000000      0.00000000      0.00652282
alpha =   6.000000E-01
DIPOLC =       0.00000000      0.00000000     -0.11970891
ZVAL =  -1.197089E+00
deltaQ =   3.180226E-06
 Dsol_rc =      -0.01012816     -0.00565664     -0.12608965
 Dele =       0.00000000      0.00000000      0.00652282
alpha =   6.000000E-01
DIPOLC =       0.00000000      0.00000000     -0.11970891
ZVAL =  -1.197089E+00
deltaQ =   3.180226E-06
deltaQ =   3.180226E-06
 Dsol_rc =      -0.01012816     -0.00565664     -0.12608965
 Dele =       0.00000000      0.00000000      0.00652282
alpha =   6.000000E-01
DIPOLC =       0.00000000      0.00000000     -0.11970891
ZVAL =  -1.197089E+00
deltaQ =   3.180226E-06
 Dsol_rc =      -0.01012816     -0.00565664     -0.12608965
 Dele =       0.00000000      0.00000000      0.00652282
alpha =   6.000000E-01
DIPOLC =       0.00000000      0.00000000     -0.11970891
ZVAL =  -1.197089E+00
deltaQ =   3.180226E-06
 Dsol_rc =      -0.01012816     -0.00565664     -0.12608965
 Dele =       0.00000000      0.00000000      0.00652282
alpha =   6.000000E-01
DIPOLC =       0.00000000      0.00000000     -0.11970891
ZVAL =  -1.197089E+00
deltaQ =   3.180226E-06
 Dsol_rc =      -0.01012816     -0.00565664     -0.12608965
 Dele =       0.00000000      0.00000000      0.00652282
alpha =   6.000000E-01
DIPOLC =       0.00000000      0.00000000     -0.11970891
ZVAL =  -1.197089E+00
deltaQ =   3.180226E-06
 Dsol_rc =      -0.01012816     -0.00565664     -0.12608965
 Dele =       0.00000000      0.00000000      0.00652282
alpha =   6.000000E-01
DIPOLC =       0.00000000      0.00000000     -0.11970891
ZVAL =  -1.197089E+00
deltaQ =   3.180226E-06
 Dsol_rc =      -0.01012816     -0.00565664     -0.12608965
 Dele =       0.00000000      0.00000000      0.00652282
alpha =   6.000000E-01
DIPOLC =       0.00000000      0.00000000     -0.11970891
ZVAL =  -1.197089E+00
deltaQ =   3.180226E-06
 Dsol_rc =      -0.01012816     -0.00565664     -0.12608965
 Dele =       0.00000000      0.00000000      0.00652282
alpha =   6.000000E-01
DIPOLC =       0.00000000      0.00000000     -0.11970891
ZVAL =  -1.197089E+00
deltaQ =   3.180226E-06
 Dsol_rc =      -0.01012816     -0.00565664     -0.12608965
 Dele =       0.00000000      0.00000000      0.00652282
alpha =   6.000000E-01
DIPOLC =       0.00000000      0.00000000     -0.11970891
ZVAL =  -1.197089E+00
deltaQ =   3.180226E-06
 Dsol_rc =      -0.01012816     -0.00565664     -0.12608965
 Dele =       0.00000000      0.00000000      0.00652282
alpha =   6.000000E-01
DIPOLC =       0.00000000      0.00000000     -0.11970891
ZVAL =  -1.197089E+00
deltaQ =   3.180226E-06
 Dsol_rc =      -0.01012816     -0.00565664     -0.12608965
 Dele =       0.00000000      0.00000000      0.00652282
alpha =   6.000000E-01
DIPOLC =       0.00000000      0.00000000     -0.11970891
ZVAL =  -1.197089E+00
deltaQ =   3.180226E-06
 Dsol_rc =      -0.01012816     -0.00565664     -0.12608965
 Dele =       0.00000000      0.00000000      0.00652282
alpha =   6.000000E-01
DIPOLC =       0.00000000      0.00000000     -0.11970891
ZVAL =  -1.197089E+00
deltaQ =   3.180226E-06
 Dsol_rc =      -0.01012816     -0.00565664     -0.12608965
 Dele =       0.00000000      0.00000000      0.00652282
alpha =   6.000000E-01
DIPOLC =       0.00000000      0.00000000     -0.11970891
ZVAL =  -1.197089E+00
deltaQ =   3.180226E-06
 Dsol_rc =      -0.01012816     -0.00565664     -0.12608965
 Dele =       0.00000000      0.00000000      0.00652282
alpha =   6.000000E-01
DIPOLC =       0.00000000      0.00000000     -0.11970891
ZVAL =  -1.197089E+00
 Dsol_rc =      -0.01012816     -0.00565664     -0.12608965
 Dele =       0.00000000      0.00000000      0.00652282
alpha =   6.000000E-01
DIPOLC =       0.00000000      0.00000000     -0.11970891
ZVAL =  -1.197089E+00
 Begin Solvation calculations
  rms_SCF =   5.242056594066192E-004 tol =   5.242056594066192E-005
 Begin minimization
 Creating dielectric and ionic cavities
  area:      239.951452816114     
  volume:    3289.81688000628     
  A_cav:    0.210917327025364     
  qion_max:     4.88237796350362     
  Solving nonlinear dielectric/ionic screening model
  Starting outer loop
        iter                  A_solv                     rms
 resid(G=0) =   4.923359215583731E-011
  NLPB:    0  -0.312243077323167E-01   0.107201577956971E-03
   LPB:       -0.312243077323167E-01   0.107201577956959E-03
   LPB:    0  -0.312243077323167E-01   0.107201563367495E-03   0.593917E-12   0.000000E+00   0.828964E+02   0.492336E-10
   LPB:    1  -0.312242876654373E-01   0.221547896890274E-02   0.315196E+00   0.000000E+00   0.345501E+02  -0.243120E-26
   LPB:    2  -0.312242622682872E-01   0.758567272392342E-03   0.133083E-01   0.299752E+02   0.579744E+02  -0.703784E-18
   LPB:    3  -0.312242470722137E-01   0.308586731335918E-03   0.159642E-01   0.498797E+00   0.861072E+02  -0.810321E-17
   LPB:    4  -0.312242458387446E-01   0.212512759016845E-03   0.949699E-02   0.136445E+00   0.187366E+03  -0.119175E-16
   LPB:    5  -0.312242456263535E-01   0.106550864025698E-03   0.600817E-02   0.272177E+00   0.309229E+03  -0.121401E-16
   LPB:    6  -0.312242455332207E-01   0.277930568053747E-04   0.880301E-02   0.299280E+00   0.370785E+03  -0.121636E-16
   LPB:    7  -0.312242454778167E-01   0.153564845980402E-04   0.209122E-01   0.250421E+00   0.308866E+03  -0.122244E-16
   LPB:    8  -0.312242454588114E-01   0.211686957039096E-04   0.245840E-01   0.291798E+00   0.232627E+03  -0.123930E-16
   LPB:    9  -0.312242454403291E-01   0.105478642073959E-04   0.239562E-01   0.997962E+00   0.219217E+03  -0.125317E-16
    LS:    0  -0.312242454401241E-01   0.622921926332620E-07   0.124583975294099E-06
 resid(G=0) =   1.339862550471744E-014
  NLPB:    1  -0.312242454401241E-01   0.105478439175469E-04
  Finished solving NLPB equations
 End minimization
 Ecorr=   1983.83627614094     
 A_corr=  0.179693081585240     
 Ecorr_band=  -1983.65658305936     
 End Solvation calculations
RMM:  33    -0.195273970010E+03   -0.16108E-05   -0.48250E-09  1967   0.111E-04    0.493E-04
deltaQ =   3.180179E-06
 Dsol_rc =      -0.01010531     -0.00565663     -0.12633703
 Dele =       0.00000000      0.00000000      0.00659290
alpha =   6.000000E-01
DIPOLC =       0.00000000      0.00000000     -0.11973005
ZVAL =  -1.197300E+00
deltaQ =   3.180179E-06
 Dsol_rc =      -0.01010531     -0.00565663     -0.12633703
 Dele =       0.00000000      0.00000000      0.00659290
alpha =   6.000000E-01
DIPOLC =       0.00000000      0.00000000     -0.11973005
ZVAL =  -1.197300E+00
deltaQ =   3.180179E-06
 Dsol_rc =      -0.01010531     -0.00565663     -0.12633703
 Dele =       0.00000000      0.00000000      0.00659290
alpha =   6.000000E-01
DIPOLC =       0.00000000      0.00000000     -0.11973005
ZVAL =  -1.197300E+00
deltaQ =   3.180179E-06
 Dsol_rc =      -0.01010531     -0.00565663     -0.12633703
 Dele =       0.00000000      0.00000000      0.00659290
alpha =   6.000000E-01
DIPOLC =       0.00000000      0.00000000     -0.11973005
ZVAL =  -1.197300E+00
deltaQ =   3.180179E-06
 Dsol_rc =      -0.01010531     -0.00565663     -0.12633703
 Dele =       0.00000000      0.00000000      0.00659290
alpha =   6.000000E-01
DIPOLC =       0.00000000      0.00000000     -0.11973005
ZVAL =  -1.197300E+00
deltaQ =   3.180179E-06
 Dsol_rc =      -0.01010531     -0.00565663     -0.12633703
 Dele =       0.00000000      0.00000000      0.00659290
alpha =   6.000000E-01
DIPOLC =       0.00000000      0.00000000     -0.11973005
ZVAL =  -1.197300E+00
deltaQ =   3.180179E-06
deltaQ =   3.180179E-06
 Dsol_rc =      -0.01010531     -0.00565663     -0.12633703
 Dele =       0.00000000      0.00000000      0.00659290
alpha =   6.000000E-01
DIPOLC =       0.00000000      0.00000000     -0.11973005
ZVAL =  -1.197300E+00
deltaQ =   3.180179E-06
 Dsol_rc =      -0.01010531     -0.00565663     -0.12633703
 Dele =       0.00000000      0.00000000      0.00659290
alpha =   6.000000E-01
DIPOLC =       0.00000000      0.00000000     -0.11973005
ZVAL =  -1.197300E+00
deltaQ =   3.180179E-06
 Dsol_rc =      -0.01010531     -0.00565663     -0.12633703
 Dele =       0.00000000      0.00000000      0.00659290
alpha =   6.000000E-01
DIPOLC =       0.00000000      0.00000000     -0.11973005
ZVAL =  -1.197300E+00
deltaQ =   3.180179E-06
 Dsol_rc =      -0.01010531     -0.00565663     -0.12633703
 Dele =       0.00000000      0.00000000      0.00659290
alpha =   6.000000E-01
DIPOLC =       0.00000000      0.00000000     -0.11973005
ZVAL =  -1.197300E+00
deltaQ =   3.180179E-06
 Dsol_rc =      -0.01010531     -0.00565663     -0.12633703
 Dele =       0.00000000      0.00000000      0.00659290
alpha =   6.000000E-01
DIPOLC =       0.00000000      0.00000000     -0.11973005
ZVAL =  -1.197300E+00
deltaQ =   3.180179E-06
 Dsol_rc =      -0.01010531     -0.00565663     -0.12633703
 Dele =       0.00000000      0.00000000      0.00659290
alpha =   6.000000E-01
DIPOLC =       0.00000000      0.00000000     -0.11973005
ZVAL =  -1.197300E+00
deltaQ =   3.180179E-06
 Dsol_rc =      -0.01010531     -0.00565663     -0.12633703
 Dele =       0.00000000      0.00000000      0.00659290
alpha =   6.000000E-01
DIPOLC =       0.00000000      0.00000000     -0.11973005
ZVAL =  -1.197300E+00
deltaQ =   3.180179E-06
 Dsol_rc =      -0.01010531     -0.00565663     -0.12633703
 Dele =       0.00000000      0.00000000      0.00659290
alpha =   6.000000E-01
DIPOLC =       0.00000000      0.00000000     -0.11973005
ZVAL =  -1.197300E+00
deltaQ =   3.180179E-06
 Dsol_rc =      -0.01010531     -0.00565663     -0.12633703
 Dele =       0.00000000      0.00000000      0.00659290
alpha =   6.000000E-01
DIPOLC =       0.00000000      0.00000000     -0.11973005
ZVAL =  -1.197300E+00
 Dsol_rc =      -0.01010531     -0.00565663     -0.12633703
 Dele =       0.00000000      0.00000000      0.00659290
alpha =   6.000000E-01
DIPOLC =       0.00000000      0.00000000     -0.11973005
ZVAL =  -1.197300E+00
 Begin Solvation calculations
  rms_SCF =   5.242056594066192E-004 tol =   5.242056594066192E-005
 Begin minimization
 Creating dielectric and ionic cavities
  area:      239.951452119419     
  volume:    3289.81684632679     
  A_cav:    0.210917326412969     
  qion_max:     4.88237806182064     
  Solving nonlinear dielectric/ionic screening model
  Starting outer loop
        iter                  A_solv                     rms
 resid(G=0) =   5.485222546272893E-011
  NLPB:    0  -0.312244938727463E-01   0.262710280883228E-04
   LPB:       -0.312244938727463E-01   0.262710280882655E-04
   LPB:    0  -0.312244938727463E-01   0.262710973866757E-04   0.661696E-12   0.000000E+00   0.828964E+02   0.548522E-10
   LPB:    1  -0.312244938307757E-01   0.434823938375200E-04   0.276085E-01   0.000000E+00   0.128083E+03  -0.320788E-26
   LPB:    2  -0.312244937261320E-01   0.779553046096339E-04   0.358376E-01   0.192076E+01   0.311689E+02  -0.434484E-19
   LPB:    3  -0.312244935297771E-01   0.140727460045941E-03   0.258062E-01   0.260581E+01   0.899711E+01  -0.129690E-18
   LPB:    4  -0.312244933493425E-01   0.590508180549489E-04   0.139180E-01   0.170383E+01   0.734087E+01   0.259028E-18
   LPB:    5  -0.312244932091647E-01   0.104966954334967E-03   0.197123E-01   0.548527E+00   0.101172E+02   0.113811E-18
   LPB:    6  -0.312244931407541E-01   0.737182022893657E-04   0.812745E-02   0.118366E+01   0.260073E+02  -0.105842E-18
   LPB:    7  -0.312244930946306E-01   0.248997683633211E-04   0.945992E-02   0.579250E+00   0.446619E+02   0.181577E-18
   LPB:    8  -0.312244930725007E-01   0.965806939839163E-05   0.202667E-01   0.223956E+00   0.302079E+02   0.429264E-18
   LPB:    9  -0.312244930530177E-01   0.163507073423741E-04   0.345513E-01   0.516407E+00   0.466554E+02   0.559177E-18
   LPB:   10  -0.312244930405743E-01   0.168374904055510E-04   0.202717E-01   0.108858E+01   0.637604E+02   0.682652E-18
   LPB:   11  -0.312244930298526E-01   0.563588282812276E-05   0.191468E-01   0.912262E+00   0.464229E+02   0.760284E-18
   LPB:   12  -0.312244930231311E-01   0.302833149080897E-05   0.265986E-01   0.451275E+00   0.736981E+02   0.800996E-18
   LPB:   13  -0.312244930206857E-01   0.132197876758250E-05   0.246663E-01   0.392315E+00   0.126125E+03   0.805093E-18
    LS:    0  -0.312244930207353E-01   0.852011006885478E-09   0.170412112374160E-08
 resid(G=0) =  -9.166828994960690E-015
  NLPB:    1  -0.312244930207353E-01   0.132198016992152E-05
  Finished solving NLPB equations
 End minimization
 Ecorr=   1983.81390108945     
 A_corr=  0.179692833392234     
 Ecorr_band=  -1983.63420825606     
 End Solvation calculations
RMM:  34    -0.195273969658E+03    0.35180E-06   -0.35784E-10  1114   0.791E-05    0.239E-04
deltaQ =   3.180130E-06
 Dsol_rc =      -0.01013851     -0.00565662     -0.12637553
 Dele =       0.00000000      0.00000000      0.00660241
alpha =   6.000000E-01
DIPOLC =       0.00000000      0.00000000     -0.11975589
ZVAL =  -1.197559E+00
deltaQ =   3.180130E-06
 Dsol_rc =      -0.01013851     -0.00565662     -0.12637553
 Dele =       0.00000000      0.00000000      0.00660241
alpha =   6.000000E-01
DIPOLC =       0.00000000      0.00000000     -0.11975589
ZVAL =  -1.197559E+00
deltaQ =   3.180130E-06
 Dsol_rc =      -0.01013851     -0.00565662     -0.12637553
 Dele =       0.00000000      0.00000000      0.00660241
alpha =   6.000000E-01
DIPOLC =       0.00000000      0.00000000     -0.11975589
ZVAL =  -1.197559E+00
deltaQ =   3.180130E-06
 Dsol_rc =      -0.01013851     -0.00565662     -0.12637553
 Dele =       0.00000000      0.00000000      0.00660241
alpha =   6.000000E-01
DIPOLC =       0.00000000      0.00000000     -0.11975589
ZVAL =  -1.197559E+00
deltaQ =   3.180130E-06
 Dsol_rc =      -0.01013851     -0.00565662     -0.12637553
 Dele =       0.00000000      0.00000000      0.00660241
alpha =   6.000000E-01
DIPOLC =       0.00000000      0.00000000     -0.11975589
ZVAL =  -1.197559E+00
deltaQ =   3.180130E-06
 Dsol_rc =      -0.01013851     -0.00565662     -0.12637553
 Dele =       0.00000000      0.00000000      0.00660241
alpha =   6.000000E-01
DIPOLC =       0.00000000      0.00000000     -0.11975589
ZVAL =  -1.197559E+00
deltaQ =   3.180130E-06
deltaQ =   3.180130E-06
 Dsol_rc =      -0.01013851     -0.00565662     -0.12637553
 Dele =       0.00000000      0.00000000      0.00660241
alpha =   6.000000E-01
DIPOLC =       0.00000000      0.00000000     -0.11975589
ZVAL =  -1.197559E+00
deltaQ =   3.180130E-06
 Dsol_rc =      -0.01013851     -0.00565662     -0.12637553
 Dele =       0.00000000      0.00000000      0.00660241
alpha =   6.000000E-01
DIPOLC =       0.00000000      0.00000000     -0.11975589
ZVAL =  -1.197559E+00
deltaQ =   3.180130E-06
 Dsol_rc =      -0.01013851     -0.00565662     -0.12637553
 Dele =       0.00000000      0.00000000      0.00660241
alpha =   6.000000E-01
DIPOLC =       0.00000000      0.00000000     -0.11975589
ZVAL =  -1.197559E+00
deltaQ =   3.180130E-06
 Dsol_rc =      -0.01013851     -0.00565662     -0.12637553
 Dele =       0.00000000      0.00000000      0.00660241
alpha =   6.000000E-01
DIPOLC =       0.00000000      0.00000000     -0.11975589
ZVAL =  -1.197559E+00
deltaQ =   3.180130E-06
 Dsol_rc =      -0.01013851     -0.00565662     -0.12637553
 Dele =       0.00000000      0.00000000      0.00660241
alpha =   6.000000E-01
DIPOLC =       0.00000000      0.00000000     -0.11975589
ZVAL =  -1.197559E+00
deltaQ =   3.180130E-06
 Dsol_rc =      -0.01013851     -0.00565662     -0.12637553
 Dele =       0.00000000      0.00000000      0.00660241
alpha =   6.000000E-01
DIPOLC =       0.00000000      0.00000000     -0.11975589
ZVAL =  -1.197559E+00
deltaQ =   3.180130E-06
 Dsol_rc =      -0.01013851     -0.00565662     -0.12637553
 Dele =       0.00000000      0.00000000      0.00660241
alpha =   6.000000E-01
DIPOLC =       0.00000000      0.00000000     -0.11975589
ZVAL =  -1.197559E+00
deltaQ =   3.180130E-06
 Dsol_rc =      -0.01013851     -0.00565662     -0.12637553
 Dele =       0.00000000      0.00000000      0.00660241
alpha =   6.000000E-01
DIPOLC =       0.00000000      0.00000000     -0.11975589
ZVAL =  -1.197559E+00
deltaQ =   3.180130E-06
 Dsol_rc =      -0.01013851     -0.00565662     -0.12637553
 Dele =       0.00000000      0.00000000      0.00660241
alpha =   6.000000E-01
DIPOLC =       0.00000000      0.00000000     -0.11975589
ZVAL =  -1.197559E+00
 Dsol_rc =      -0.01013851     -0.00565662     -0.12637553
 Dele =       0.00000000      0.00000000      0.00660241
alpha =   6.000000E-01
DIPOLC =       0.00000000      0.00000000     -0.11975589
ZVAL =  -1.197559E+00
 Begin Solvation calculations
  rms_SCF =   5.242056594066192E-004 tol =   5.242056594066192E-005
 Begin minimization
 Creating dielectric and ionic cavities
  area:      239.951451799441     
  volume:    3289.81685031918     
  A_cav:    0.210917326131709     
  qion_max:     4.88237804478532     
  Solving nonlinear dielectric/ionic screening model
  Starting outer loop
        iter                  A_solv                     rms
 resid(G=0) =  -4.674161960718223E-011
  NLPB:    0  -0.312246619061452E-01   0.166018457050755E-04
   LPB:       -0.312246619061452E-01   0.166018457050097E-04
   LPB:    0  -0.312246619061452E-01   0.166017814054520E-04  -0.563856E-12   0.000000E+00   0.828964E+02  -0.467416E-10
   LPB:    1  -0.312246614595091E-01   0.159465726240713E-03   0.415608E+00   0.000000E+00   0.138678E+02   0.379027E-26
   LPB:    2  -0.312246611496992E-01   0.128680695832705E-03   0.141904E-01   0.203157E+02   0.158005E+02   0.170976E-17
   LPB:    3  -0.312246609562631E-01   0.615572380821536E-04   0.111021E-01   0.798051E+00   0.198513E+02   0.306082E-17
   LPB:    4  -0.312246609198458E-01   0.649691804481715E-04   0.885190E-02   0.236124E+00   0.621101E+02   0.403677E-17
   LPB:    5  -0.312246608954002E-01   0.225415951974677E-04   0.827746E-02   0.717846E+00   0.877254E+02   0.415531E-17
   LPB:    6  -0.312246608813846E-01   0.827356280763112E-05   0.177327E-01   0.267630E+00   0.376330E+03   0.418125E-17
   LPB:    7  -0.312246608745125E-01   0.861016385841332E-05   0.232133E-01   0.374552E+00   0.295323E+03   0.422142E-17
   LPB:    8  -0.312246608702225E-01   0.887147384424281E-05   0.206213E-01   0.702742E+00   0.338428E+03   0.421940E-17
   LPB:    9  -0.312246608669445E-01   0.366351565626493E-05   0.184248E-01   0.855191E+00   0.311501E+03   0.420014E-17
   LPB:   10  -0.312246608654774E-01   0.243391939887553E-05   0.208337E-01   0.395788E+00   0.761500E+03   0.417340E-17
   LPB:   11  -0.312246608646128E-01   0.379145374441172E-05   0.266184E-01   0.461306E+00   0.487112E+03   0.417055E-17
   LPB:   12  -0.312246608641377E-01   0.161239792453697E-05   0.179090E-01   0.816574E+00   0.194915E+03   0.415676E-17
    LS:    0  -0.312246608640807E-01   0.104206447637534E-08   0.208401485933175E-08
 resid(G=0) =  -2.730832019662201E-014
  NLPB:    1  -0.312246608640807E-01   0.161239810462586E-05
  Finished solving NLPB equations
 End minimization
 Ecorr=   1983.80327656842     
 A_corr=  0.179692665267628     
 Ecorr_band=  -1983.62358390315     
 End Solvation calculations
RMM:  35    -0.195273969439E+03    0.21912E-06   -0.69356E-10  1078   0.845E-05    0.582E-05
deltaQ =   3.180176E-06
 Dsol_rc =      -0.01014576     -0.00565663     -0.12639087
 Dele =       0.00000000      0.00000000      0.00662252
alpha =   6.000000E-01
DIPOLC =       0.00000000      0.00000000     -0.11976336
ZVAL =  -1.197634E+00
deltaQ =   3.180176E-06
deltaQ =   3.180176E-06
 Dsol_rc =      -0.01014576     -0.00565663     -0.12639087
 Dele =       0.00000000      0.00000000      0.00662252
alpha =   6.000000E-01
DIPOLC =       0.00000000      0.00000000     -0.11976336
ZVAL =  -1.197634E+00
deltaQ =   3.180176E-06
 Dsol_rc =      -0.01014576     -0.00565663     -0.12639087
 Dele =       0.00000000      0.00000000      0.00662252
alpha =   6.000000E-01
DIPOLC =       0.00000000      0.00000000     -0.11976336
ZVAL =  -1.197634E+00
deltaQ =   3.180176E-06
 Dsol_rc =      -0.01014576     -0.00565663     -0.12639087
 Dele =       0.00000000      0.00000000      0.00662252
alpha =   6.000000E-01
DIPOLC =       0.00000000      0.00000000     -0.11976336
ZVAL =  -1.197634E+00
deltaQ =   3.180176E-06
 Dsol_rc =      -0.01014576     -0.00565663     -0.12639087
 Dele =       0.00000000      0.00000000      0.00662252
alpha =   6.000000E-01
DIPOLC =       0.00000000      0.00000000     -0.11976336
ZVAL =  -1.197634E+00
deltaQ =   3.180176E-06
 Dsol_rc =      -0.01014576     -0.00565663     -0.12639087
 Dele =       0.00000000      0.00000000      0.00662252
alpha =   6.000000E-01
DIPOLC =       0.00000000      0.00000000     -0.11976336
ZVAL =  -1.197634E+00
deltaQ =   3.180176E-06
 Dsol_rc =      -0.01014576     -0.00565663     -0.12639087
 Dele =       0.00000000      0.00000000      0.00662252
alpha =   6.000000E-01
DIPOLC =       0.00000000      0.00000000     -0.11976336
ZVAL =  -1.197634E+00
deltaQ =   3.180176E-06
 Dsol_rc =      -0.01014576     -0.00565663     -0.12639087
 Dele =       0.00000000      0.00000000      0.00662252
alpha =   6.000000E-01
DIPOLC =       0.00000000      0.00000000     -0.11976336
ZVAL =  -1.197634E+00
deltaQ =   3.180176E-06
 Dsol_rc =      -0.01014576     -0.00565663     -0.12639087
 Dele =       0.00000000      0.00000000      0.00662252
alpha =   6.000000E-01
DIPOLC =       0.00000000      0.00000000     -0.11976336
ZVAL =  -1.197634E+00
deltaQ =   3.180176E-06
 Dsol_rc =      -0.01014576     -0.00565663     -0.12639087
 Dele =       0.00000000      0.00000000      0.00662252
alpha =   6.000000E-01
DIPOLC =       0.00000000      0.00000000     -0.11976336
ZVAL =  -1.197634E+00
deltaQ =   3.180176E-06
 Dsol_rc =      -0.01014576     -0.00565663     -0.12639087
 Dele =       0.00000000      0.00000000      0.00662252
alpha =   6.000000E-01
DIPOLC =       0.00000000      0.00000000     -0.11976336
ZVAL =  -1.197634E+00
deltaQ =   3.180176E-06
 Dsol_rc =      -0.01014576     -0.00565663     -0.12639087
 Dele =       0.00000000      0.00000000      0.00662252
alpha =   6.000000E-01
DIPOLC =       0.00000000      0.00000000     -0.11976336
ZVAL =  -1.197634E+00
deltaQ =   3.180176E-06
 Dsol_rc =      -0.01014576     -0.00565663     -0.12639087
 Dele =       0.00000000      0.00000000      0.00662252
alpha =   6.000000E-01
DIPOLC =       0.00000000      0.00000000     -0.11976336
ZVAL =  -1.197634E+00
deltaQ =   3.180176E-06
 Dsol_rc =      -0.01014576     -0.00565663     -0.12639087
 Dele =       0.00000000      0.00000000      0.00662252
alpha =   6.000000E-01
DIPOLC =       0.00000000      0.00000000     -0.11976336
ZVAL =  -1.197634E+00
deltaQ =   3.180176E-06
 Dsol_rc =      -0.01014576     -0.00565663     -0.12639087
 Dele =       0.00000000      0.00000000      0.00662252
alpha =   6.000000E-01
DIPOLC =       0.00000000      0.00000000     -0.11976336
ZVAL =  -1.197634E+00
 Dsol_rc =      -0.01014576     -0.00565663     -0.12639087
 Dele =       0.00000000      0.00000000      0.00662252
alpha =   6.000000E-01
DIPOLC =       0.00000000      0.00000000     -0.11976336
ZVAL =  -1.197634E+00
 Begin Solvation calculations
  rms_SCF =   1.103682094826673E-004 tol =   1.103682094826673E-005
 Begin minimization
 Creating dielectric and ionic cavities
  area:      239.951451280638     
  volume:    3289.81686688241     
  A_cav:    0.210917325675681     
  qion_max:     4.88237799543255     
  Solving nonlinear dielectric/ionic screening model
  Starting outer loop
        iter                  A_solv                     rms
 resid(G=0) =  -1.039195578776401E-010
  NLPB:    0  -0.312247417222718E-01   0.787007744652574E-05
   LPB:       -0.312247417222718E-01   0.787007744583964E-05
   LPB:    0  -0.312247417222718E-01   0.786994785183776E-05  -0.125361E-11   0.000000E+00   0.828964E+02  -0.103920E-09
   LPB:    1  -0.312247417086401E-01   0.392873564591858E-04   0.827434E-01   0.000000E+00   0.515257E+02   0.356603E-26
   LPB:    2  -0.312247416638024E-01   0.527217250384889E-04   0.337855E-01   0.805557E+01   0.122962E+02  -0.453560E-19
   LPB:    3  -0.312247416126715E-01   0.365829134347122E-04   0.150207E-01   0.256496E+01   0.846620E+01  -0.829826E-18
   LPB:    4  -0.312247415964749E-01   0.188779021248067E-04   0.118928E-01   0.400081E+00   0.202070E+02  -0.159699E-17
   LPB:    5  -0.312247415871108E-01   0.329720148320339E-04   0.144156E-01   0.476970E+00   0.327814E+02  -0.191447E-17
   LPB:    6  -0.312247415832387E-01   0.690772212831368E-05   0.604211E-02   0.986563E+00   0.801475E+02  -0.208715E-17
   LPB:    7  -0.312247415808584E-01   0.325880481014301E-05   0.203340E-01   0.182662E+00   0.283603E+03  -0.216304E-17
   LPB:    8  -0.312247415798741E-01   0.373682811251409E-05   0.206365E-01   0.407494E+00   0.251634E+03  -0.219796E-17
   LPB:    9  -0.312247415791803E-01   0.274461829266737E-05   0.217216E-01   0.669599E+00   0.767761E+02  -0.220291E-17
   LPB:   10  -0.312247415787663E-01   0.248727547993072E-05   0.196657E-01   0.659057E+00   0.300352E+03  -0.216847E-17
   LPB:   11  -0.312247415784961E-01   0.157266842654725E-05   0.180911E-01   0.709605E+00   0.536172E+03  -0.215105E-17
   LPB:   12  -0.312247415783438E-01   0.835797004318139E-06   0.255177E-01   0.399524E+00   0.987184E+02  -0.213922E-17
   LPB:   13  -0.312247415782403E-01   0.961959881363369E-06   0.314156E-01   0.551999E+00   0.657001E+03  -0.213564E-17
   LPB:   14  -0.312247415781458E-01   0.902850589871815E-06   0.265610E-01   0.108018E+01   0.167739E+03  -0.213225E-17
   LPB:   15  -0.312247415780968E-01   0.112136919057787E-05   0.198672E-01   0.692823E+00   0.559665E+03  -0.212311E-17
   LPB:   16  -0.312247415780848E-01   0.123955241783608E-05   0.834673E-02   0.582992E+00   0.310965E+03  -0.211655E-17
   LPB:   17  -0.312247415780673E-01   0.418250859496264E-06   0.136252E-01   0.893556E+00   0.328924E+03  -0.211589E-17
    LS:    0  -0.312247415780672E-01   0.144204547608551E-09   0.288408937263461E-09
 resid(G=0) =   1.761155562612351E-014
  NLPB:    1  -0.312247415780672E-01   0.418250902749391E-06
  Finished solving NLPB equations
 End minimization
 Ecorr=   1983.79693851213     
 A_corr=  0.179692584097613     
 Ecorr_band=  -1983.61724592803     
 End Solvation calculations
RMM:  36    -0.195273969354E+03    0.85231E-07   -0.33155E-09  1532   0.964E-05
CPM-scf: NSTEP=    1 SCF=    1 N_ele=   704.000000 mu_e=  -4.979163 TARGETMU=  -5.107100 cap=   0.500000
       N       E                     dE             d eps       ncg     rms          rms(c)
DAV:   1    -0.194775860084E+03    0.49811E+00   -0.25293E-09  3632   0.833E-05
DAV:   2    -0.194775860084E+03    0.23283E-09    0.41874E-10  3456   0.289E-05
DAV:   3    -0.194775860084E+03    0.23283E-09    0.70780E-10  3536   0.138E-05
DAV:   4    -0.194775860083E+03    0.69849E-09    0.78960E-10  3536   0.790E-06
DAV:   5    -0.194775860084E+03   -0.10477E-08    0.80291E-10  3472   0.491E-06    0.534E-02
deltaQ =  -9.999682E-02
 Dsol_rc =      -0.01013991     -0.00565663     -0.12640358
deltaQ =  -9.999682E-02
 Dsol_rc =      -0.01013991     -0.00565663     -0.12640358
deltaQ =  -9.999682E-02
deltaQ =  -9.999682E-02
 Dsol_rc =      -0.01013991     -0.00565663     -0.12640358
deltaQ =  -9.999682E-02
 Dsol_rc =      -0.01013991     -0.00565663     -0.12640358
deltaQ =  -9.999682E-02
 Dsol_rc =      -0.01013991     -0.00565663     -0.12640358
deltaQ =  -9.999682E-02
 Dsol_rc =      -0.01013991     -0.00565663     -0.12640358
deltaQ =  -9.999682E-02
 Dsol_rc =      -0.01013991     -0.00565663     -0.12640358
deltaQ =  -9.999682E-02
 Dsol_rc =      -0.01013991     -0.00565663     -0.12640358
deltaQ =  -9.999682E-02
 Dsol_rc =      -0.01013991     -0.00565663     -0.12640358
deltaQ =  -9.999682E-02
 Dsol_rc =      -0.01013991     -0.00565663     -0.12640358
deltaQ =  -9.999682E-02
 Dsol_rc =      -0.01013991     -0.00565663     -0.12640358
 Dele =       0.00000000      0.00000000      0.00814763
alpha =   3.000000E-01
DIPOLC =       0.00000000      0.00000000     -0.11931114
ZVAL =  -1.193111E+00
deltaQ =  -9.999682E-02
 Dsol_rc =      -0.01013991     -0.00565663     -0.12640358
 Dele =       0.00000000      0.00000000      0.00814763
alpha =   3.000000E-01
DIPOLC =       0.00000000      0.00000000     -0.11931114
ZVAL =  -1.193111E+00
deltaQ =  -9.999682E-02
 Dsol_rc =      -0.01013991     -0.00565663     -0.12640358
 Dele =       0.00000000      0.00000000      0.00814763
alpha =   3.000000E-01
DIPOLC =       0.00000000      0.00000000     -0.11931114
ZVAL =  -1.193111E+00
deltaQ =  -9.999682E-02
 Dsol_rc =      -0.01013991     -0.00565663     -0.12640358
 Dele =       0.00000000      0.00000000      0.00814763
alpha =   3.000000E-01
DIPOLC =       0.00000000      0.00000000     -0.11931114
ZVAL =  -1.193111E+00
deltaQ =  -9.999682E-02
 Dsol_rc =      -0.01013991     -0.00565663     -0.12640358
 Dele =       0.00000000      0.00000000      0.00814763
alpha =   3.000000E-01
DIPOLC =       0.00000000      0.00000000     -0.11931114
ZVAL =  -1.193111E+00
 Dele =       0.00000000      0.00000000      0.00814763
alpha =   3.000000E-01
DIPOLC =       0.00000000      0.00000000     -0.11931114
ZVAL =  -1.193111E+00
 Dele =       0.00000000      0.00000000      0.00814763
alpha =   3.000000E-01
DIPOLC =       0.00000000      0.00000000     -0.11931114
ZVAL =  -1.193111E+00
 Dele =       0.00000000      0.00000000      0.00814763
alpha =   3.000000E-01
DIPOLC =       0.00000000      0.00000000     -0.11931114
ZVAL =  -1.193111E+00
 Dele =       0.00000000      0.00000000      0.00814763
alpha =   3.000000E-01
DIPOLC =       0.00000000      0.00000000     -0.11931114
ZVAL =  -1.193111E+00
 Dele =       0.00000000      0.00000000      0.00814763
alpha =   3.000000E-01
DIPOLC =       0.00000000      0.00000000     -0.11931114
ZVAL =  -1.193111E+00
 Dele =       0.00000000      0.00000000      0.00814763
alpha =   3.000000E-01
DIPOLC =       0.00000000      0.00000000     -0.11931114
ZVAL =  -1.193111E+00
 Dele =       0.00000000      0.00000000      0.00814763
alpha =   3.000000E-01
DIPOLC =       0.00000000      0.00000000     -0.11931114
ZVAL =  -1.193111E+00
 Dele =       0.00000000      0.00000000      0.00814763
alpha =   3.000000E-01
DIPOLC =       0.00000000      0.00000000     -0.11931114
ZVAL =  -1.193111E+00
 Dele =       0.00000000      0.00000000      0.00814763
alpha =   3.000000E-01
DIPOLC =       0.00000000      0.00000000     -0.11931114
ZVAL =  -1.193111E+00
 Dele =       0.00000000      0.00000000      0.00814763
alpha =   3.000000E-01
DIPOLC =       0.00000000      0.00000000     -0.11931114
ZVAL =  -1.193111E+00
 Dsol_rc =      -0.01013991     -0.00565663     -0.12640358
 Dele =       0.00000000      0.00000000      0.00814763
alpha =   3.000000E-01
DIPOLC =       0.00000000      0.00000000     -0.11931114
ZVAL =  -1.193111E+00
 Begin Solvation calculations
  rms_SCF =   1.103682094826673E-004 tol =   1.103682094826673E-005
 Begin minimization
 Creating dielectric and ionic cavities
  area:      239.952334130703     
  volume:    3289.71439929910     
  A_cav:    0.210918101700888     
  qion_max:     4.88267953001667     
  Solving nonlinear dielectric/ionic screening model
  Starting outer loop
        iter                  A_solv                     rms
 resid(G=0) =  -9.999997833127966E-002
  NLPB:    0   0.951382975822146E-01   0.129072490625700E+00
   LPB:        0.951382975822146E-01   0.816070595602185E-01
   LPB:    0   0.951986100760183E-01   0.139913654066945E+00  -0.120625E-02   0.000000E+00   0.829015E+02  -0.100000E+00
   LPB:    1   0.142894148879547E+00   0.233707871108972E+01   0.268916E+00   0.000000E+00   0.263474E+02  -0.847581E-17
   LPB:    2   0.239292576871187E+00   0.100296477433684E+01   0.288426E-01   0.188441E+02   0.215594E+03  -0.183321E-13
   LPB:    3   0.262694882542443E+00   0.105445541470536E+01   0.112559E-01   0.622074E+00   0.416816E+03  -0.615508E-13
   LPB:    4   0.266196411451282E+00   0.757839298962166E-01   0.690329E-02   0.243963E+00   0.146573E+03  -0.688354E-13
   LPB:    5   0.266833809509233E+00   0.420090096596240E-01   0.175325E-01   0.716744E-01   0.356686E+03  -0.701030E-13
   LPB:    6   0.267046499019639E+00   0.142350000897759E-01   0.292538E-01   0.199985E+00   0.315795E+03  -0.705344E-13
   LPB:    7   0.267119867791506E+00   0.195703225522227E-01   0.255770E-01   0.394546E+00   0.281320E+03  -0.702503E-13
   LPB:    8   0.267143291978158E+00   0.677700944232518E-01   0.186373E-01   0.438147E+00   0.328054E+03  -0.699644E-13
   LPB:    9   0.267162744423547E+00   0.819214915708714E-02   0.743596E-02   0.208140E+01   0.332420E+03  -0.698913E-13
    LS:    0   0.267169142178659E+00   0.172030844596445E+00   0.344048893682657E+00
 resid(G=0) =  -1.605752500094537E-005
  NLPB:    1   0.267169142178659E+00   0.804739705225255E-02
   LPB:        0.267169142178659E+00   0.804738103189441E-02
   LPB:    0   0.267169142180215E+00   0.804368132968906E-02  -0.193768E-06   0.000000E+00   0.828699E+02  -0.160575E-04
   LPB:    1   0.267177124811588E+00   0.290653564265946E-01   0.174091E-01   0.000000E+00   0.792577E+03   0.198940E-21
   LPB:    2   0.267180736676620E+00   0.103841670104111E-01   0.661568E-02   0.119066E+01   0.371498E+03  -0.216750E-16
   LPB:    3   0.267187057919918E+00   0.349995967600051E-02   0.276058E-01   0.419416E+00   0.767945E+03  -0.319210E-16
   LPB:    4   0.267191969687797E+00   0.535321847347117E-02   0.345863E-01   0.620200E+00   0.419695E+03  -0.116138E-15
   LPB:    5   0.267195624593823E+00   0.289147104293907E-02   0.350548E-01   0.734168E+00   0.125147E+03  -0.240702E-15
   LPB:    6   0.267198469815222E+00   0.302955846061184E-02   0.340602E-01   0.801198E+00   0.114246E+03  -0.359108E-15
   LPB:    7   0.267199352965650E+00   0.525162447464577E-02   0.212337E-01   0.497897E+00   0.145932E+03  -0.489364E-15
   LPB:    8   0.267199690389506E+00   0.422275003723491E-02   0.128693E-01   0.630394E+00   0.775748E+02  -0.537460E-15
   LPB:    9   0.267200098948103E+00   0.453136779453553E-02   0.193556E-01   0.805060E+00   0.140100E+03  -0.580470E-15
   LPB:   10   0.267200501884499E+00   0.181197582664294E-02   0.196653E-01   0.970704E+00   0.262674E+03  -0.665643E-15
   LPB:   11   0.267200835285375E+00   0.214290847886438E-02   0.304788E-01   0.533868E+00   0.474032E+03  -0.801637E-15
   LPB:   12   0.267201006595946E+00   0.347399324638916E-02   0.170846E-01   0.916664E+00   0.122824E+03  -0.988629E-15
   LPB:   13   0.267201117918144E+00   0.349044016158835E-02   0.982327E-02   0.113018E+01   0.213547E+03  -0.110629E-14
   LPB:   14   0.267201220623488E+00   0.116036035555844E-02   0.105453E-01   0.859427E+00   0.488406E+03  -0.118587E-14
   LPB:   15   0.267201305774898E+00   0.586608304985918E-03   0.222967E-01   0.392117E+00   0.614861E+03  -0.126765E-14
    LS:    0   0.267200969775122E+00   0.318275964629744E-04   0.643271924757869E-04
 resid(G=0) =  -9.492206549943649E-008
  NLPB:    2   0.267200969775122E+00   0.500036047440314E-03
   LPB:        0.267200969775122E+00   0.500036038430765E-03
   LPB:    0   0.267200969775122E+00   0.499905687233685E-03  -0.114543E-08   0.000000E+00   0.828700E+02  -0.949221E-07
   LPB:    1   0.267201006474906E+00   0.677243119300522E-03   0.231809E-01   0.000000E+00   0.261932E+03  -0.722124E-23
   LPB:    2   0.267201035946761E+00   0.144478594761954E-02   0.229796E-01   0.810087E+00   0.585903E+03  -0.150580E-16
   LPB:    3   0.267201058552777E+00   0.162793363278789E-02   0.112617E-01   0.156515E+01   0.329297E+03  -0.271168E-16
   LPB:    4   0.267201079715944E+00   0.770113324705069E-03   0.101646E-01   0.103721E+01   0.308444E+03  -0.432799E-16
   LPB:    5   0.267201111333919E+00   0.391974627970383E-03   0.272886E-01   0.556499E+00   0.751610E+03  -0.579627E-16
   LPB:    6   0.267201129935771E+00   0.602742829228644E-03   0.273975E-01   0.585992E+00   0.114523E+03  -0.945767E-16
   LPB:    7   0.267201139281061E+00   0.268681647900197E-03   0.179832E-01   0.765385E+00   0.284343E+03  -0.130672E-15
   LPB:    8   0.267201145991421E+00   0.634102719842765E-03   0.248506E-01   0.519618E+00   0.892123E+03  -0.156591E-15
   LPB:    9   0.267201150101213E+00   0.458961323489763E-03   0.127751E-01   0.119137E+01   0.182520E+03  -0.178023E-15
   LPB:   10   0.267201156486154E+00   0.171492621634266E-03   0.241420E-01   0.822108E+00   0.511227E+03  -0.190984E-15
   LPB:   11   0.267201159589916E+00   0.223803188672283E-03   0.202810E-01   0.578650E+00   0.528543E+03  -0.211004E-15
   LPB:   12   0.267201162319228E+00   0.140124001793892E-03   0.197928E-01   0.901045E+00   0.264281E+03  -0.220785E-15
   LPB:   13   0.267201165168012E+00   0.149768532477369E-03   0.311237E-01   0.663776E+00   0.140358E+03  -0.230738E-15
   LPB:   14   0.267201166496405E+00   0.456533332831994E-03   0.174816E-01   0.830189E+00   0.182966E+03  -0.241649E-15
   LPB:   15   0.267201167483260E+00   0.132821537588061E-03   0.757624E-02   0.171417E+01   0.198604E+03  -0.246917E-15
   LPB:   16   0.267201168710205E+00   0.931504592222109E-04   0.271564E-01   0.346859E+00   0.232833E+03  -0.250792E-15
   LPB:   17   0.267201169962782E+00   0.589539157074350E-04   0.285467E-01   0.971174E+00   0.996845E+02  -0.255433E-15
   LPB:   18   0.267201170443716E+00   0.349395161265241E-04   0.204559E-01   0.535818E+00   0.184571E+03  -0.262037E-15
    LS:    0   0.267201170446429E+00   0.200671306238576E-06   0.401337187178008E-06
 resid(G=0) =  -5.671208364033120E-010
  NLPB:    3   0.267201170446429E+00   0.348472699747980E-04
   LPB:        0.267201170446429E+00   0.348472699701832E-04
   LPB:    0   0.267201170446429E+00   0.348469380692783E-04  -0.684350E-11   0.000000E+00   0.828700E+02  -0.567121E-09
   LPB:    1   0.267201170657107E+00   0.328696146813285E-04   0.186447E-01   0.000000E+00   0.878579E+03  -0.197167E-25
   LPB:    2   0.267201170866787E+00   0.288505239049236E-04   0.311043E-01   0.596582E+00   0.900426E+03  -0.365633E-19
   LPB:    3   0.267201170984598E+00   0.293837848352694E-04   0.232352E-01   0.752151E+00   0.317335E+03  -0.499189E-19
   LPB:    4   0.267201171057717E+00   0.107155873468578E-03   0.219474E-01   0.657063E+00   0.272017E+03  -0.159149E-18
   LPB:    5   0.267201171108656E+00   0.309118246663877E-04   0.734201E-02   0.208251E+01   0.283788E+03  -0.197938E-18
   LPB:    6   0.267201171179750E+00   0.183626233898326E-04   0.267930E-01   0.382450E+00   0.543231E+03  -0.221005E-18
   LPB:    7   0.267201171229459E+00   0.247967007403770E-04   0.260236E-01   0.719886E+00   0.537341E+03  -0.266210E-18
   LPB:    8   0.267201171268894E+00   0.219509819059810E-04   0.199831E-01   0.103311E+01   0.293200E+03  -0.269745E-18
   LPB:    9   0.267201171304419E+00   0.141917723180797E-04   0.231686E-01   0.776985E+00   0.550565E+03  -0.292542E-18
   LPB:   10   0.267201171322809E+00   0.229714151008107E-04   0.208011E-01   0.576592E+00   0.646325E+03  -0.361399E-18
   LPB:   11   0.267201171333601E+00   0.307950765225713E-04   0.147349E-01   0.828386E+00   0.178914E+03  -0.379013E-18
   LPB:   12   0.267201171347020E+00   0.165141127299458E-04   0.181637E-01   0.100878E+01   0.119344E+03  -0.518847E-18
   LPB:   13   0.267201171361159E+00   0.121570608423451E-04   0.276999E-01   0.690854E+00   0.689583E+03  -0.677072E-18
   LPB:   14   0.267201171369787E+00   0.872859187618464E-05   0.233553E-01   0.723824E+00   0.164364E+03  -0.114761E-17
   LPB:   15   0.267201171376477E+00   0.786760432371897E-05   0.224347E-01   0.807196E+00   0.258741E+03  -0.194238E-17
   LPB:   16   0.267201171380478E+00   0.154414470047740E-04   0.202360E-01   0.662959E+00   0.344996E+03  -0.253922E-17
   LPB:   17   0.267201171382659E+00   0.147883293536374E-04   0.936791E-02   0.117756E+01   0.307805E+03  -0.289800E-17
   LPB:   18   0.267201171384550E+00   0.651391624964023E-05   0.103917E-01   0.781677E+00   0.381165E+03  -0.309683E-17
   LPB:   19   0.267201171388591E+00   0.628550676415175E-05   0.376295E-01   0.590105E+00   0.118389E+04  -0.326231E-17
   LPB:   20   0.267201171391088E+00   0.237653310971896E-05   0.242128E-01   0.960267E+00   0.108352E+03  -0.355777E-17
    LS:    0   0.267201171391065E+00   0.944636757704842E-09   0.188931879689118E-08
 resid(G=0) =  -7.067443852371014E-012
  NLPB:    4   0.267201171391065E+00   0.237752517453556E-05
  Finished solving NLPB equations
 End minimization
 Ecorr=   2140.08878599495     
 A_corr=  0.478119273091953     
 Ecorr_band=  -2139.61066672186     
 End Solvation calculations
RMM:   6    -0.194745008664E+03    0.30851E-01   -0.13388E-02  6508   0.103E-01    0.369E-01
deltaQ =   3.176153E-06
 Dsol_rc =      -0.01663002     -0.00954127      0.00902325
 Dele =       0.00000000      0.00000000      0.00308831
alpha =   6.000000E-01
DIPOLC =       0.00000000      0.00000000     -0.04045752
ZVAL =  -4.045752E-01
deltaQ =   3.176153E-06
 Dsol_rc =      -0.01663002     -0.00954127      0.00902325
 Dele =       0.00000000      0.00000000      0.00308831
alpha =   6.000000E-01
DIPOLC =       0.00000000      0.00000000     -0.04045752
ZVAL =  -4.045752E-01
deltaQ =   3.176153E-06
deltaQ =   3.176153E-06
 Dsol_rc =      -0.01663002     -0.00954127      0.00902325
 Dele =       0.00000000      0.00000000      0.00308831
alpha =   6.000000E-01
DIPOLC =       0.00000000      0.00000000     -0.04045752
ZVAL =  -4.045752E-01
deltaQ =   3.176153E-06
 Dsol_rc =      -0.01663002     -0.00954127      0.00902325
 Dele =       0.00000000      0.00000000      0.00308831
alpha =   6.000000E-01
DIPOLC =       0.00000000      0.00000000     -0.04045752
ZVAL =  -4.045752E-01
deltaQ =   3.176153E-06
 Dsol_rc =      -0.01663002     -0.00954127      0.00902325
 Dele =       0.00000000      0.00000000      0.00308831
alpha =   6.000000E-01
DIPOLC =       0.00000000      0.00000000     -0.04045752
ZVAL =  -4.045752E-01
deltaQ =   3.176153E-06
 Dsol_rc =      -0.01663002     -0.00954127      0.00902325
 Dele =       0.00000000      0.00000000      0.00308831
alpha =   6.000000E-01
DIPOLC =       0.00000000      0.00000000     -0.04045752
ZVAL =  -4.045752E-01
deltaQ =   3.176153E-06
 Dsol_rc =      -0.01663002     -0.00954127      0.00902325
 Dele =       0.00000000      0.00000000      0.00308831
alpha =   6.000000E-01
DIPOLC =       0.00000000      0.00000000     -0.04045752
ZVAL =  -4.045752E-01
deltaQ =   3.176153E-06
 Dsol_rc =      -0.01663002     -0.00954127      0.00902325
 Dele =       0.00000000      0.00000000      0.00308831
alpha =   6.000000E-01
DIPOLC =       0.00000000      0.00000000     -0.04045752
ZVAL =  -4.045752E-01
deltaQ =   3.176153E-06
 Dsol_rc =      -0.01663002     -0.00954127      0.00902325
 Dele =       0.00000000      0.00000000      0.00308831
alpha =   6.000000E-01
DIPOLC =       0.00000000      0.00000000     -0.04045752
ZVAL =  -4.045752E-01
deltaQ =   3.176153E-06
 Dsol_rc =      -0.01663002     -0.00954127      0.00902325
 Dele =       0.00000000      0.00000000      0.00308831
alpha =   6.000000E-01
DIPOLC =       0.00000000      0.00000000     -0.04045752
ZVAL =  -4.045752E-01
deltaQ =   3.176153E-06
 Dsol_rc =      -0.01663002     -0.00954127      0.00902325
 Dele =       0.00000000      0.00000000      0.00308831
alpha =   6.000000E-01
DIPOLC =       0.00000000      0.00000000     -0.04045752
ZVAL =  -4.045752E-01
deltaQ =   3.176153E-06
 Dsol_rc =      -0.01663002     -0.00954127      0.00902325
 Dele =       0.00000000      0.00000000      0.00308831
alpha =   6.000000E-01
DIPOLC =       0.00000000      0.00000000     -0.04045752
ZVAL =  -4.045752E-01
deltaQ =   3.176153E-06
 Dsol_rc =      -0.01663002     -0.00954127      0.00902325
 Dele =       0.00000000      0.00000000      0.00308831
alpha =   6.000000E-01
DIPOLC =       0.00000000      0.00000000     -0.04045752
ZVAL =  -4.045752E-01
deltaQ =   3.176153E-06
 Dsol_rc =      -0.01663002     -0.00954127      0.00902325
 Dele =       0.00000000      0.00000000      0.00308831
alpha =   6.000000E-01
DIPOLC =       0.00000000      0.00000000     -0.04045752
ZVAL =  -4.045752E-01
deltaQ =   3.176153E-06
 Dsol_rc =      -0.01663002     -0.00954127      0.00902325
 Dele =       0.00000000      0.00000000      0.00308831
alpha =   6.000000E-01
DIPOLC =       0.00000000      0.00000000     -0.04045752
ZVAL =  -4.045752E-01
 Dsol_rc =      -0.01663002     -0.00954127      0.00902325
 Dele =       0.00000000      0.00000000      0.00308831
alpha =   6.000000E-01
DIPOLC =       0.00000000      0.00000000     -0.04045752
ZVAL =  -4.045752E-01
 Begin Solvation calculations
  rms_SCF =   1.103682094826673E-004 tol =   1.103682094826673E-005
 Begin minimization
 Creating dielectric and ionic cavities
  area:      239.952370606186     
  volume:    3289.71045844083     
  A_cav:    0.210918133762838     
  qion_max:     4.88269063813834     
  Solving nonlinear dielectric/ionic screening model
  Starting outer loop
        iter                  A_solv                     rms
 resid(G=0) =   4.899088801579854E-007
  NLPB:    0   0.818005456682662E-01   0.877350880246465E-01
   LPB:        0.818005456682662E-01   0.877350880232787E-01
   LPB:    0   0.818005456682676E-01   0.877342145694684E-01   0.591176E-08   0.000000E+00   0.828702E+02   0.489909E-06
   LPB:    1   0.242959249983918E+00   0.167357225184105E+01   0.890939E+00   0.000000E+00   0.277874E+02  -0.263106E-22
   LPB:    2   0.260295542213606E+00   0.592223547874728E+00   0.101559E-01   0.943697E+01   0.989382E+02  -0.747706E-14
   LPB:    3   0.262008539557217E+00   0.161931592290084E+00   0.785519E-02   0.127750E+00   0.105690E+03  -0.230144E-13
   LPB:    4   0.262327059944084E+00   0.272852473628065E-01   0.866350E-02   0.168595E+00   0.409475E+03  -0.263998E-13
   LPB:    5   0.262386338851464E+00   0.195414824003286E-01   0.209117E-01   0.771021E-01   0.291768E+03  -0.270135E-13
   LPB:    6   0.262403680685172E+00   0.424295284057787E-01   0.208369E-01   0.293597E+00   0.271369E+03  -0.275177E-13
   LPB:    7   0.262409874688067E+00   0.103060802610493E-01   0.575787E-02   0.129255E+01   0.243428E+03  -0.276034E-13
   LPB:    8   0.262416452733796E+00   0.318429552314466E-02   0.237065E-01   0.257941E+00   0.395943E+03  -0.276272E-13
    LS:    0   0.262417040574923E+00   0.180616494906657E+00   0.361231814131044E+00
 resid(G=0) =  -2.156731842700710E-007
  NLPB:    1   0.262417040574923E+00   0.316359907953227E-02
   LPB:        0.262417040574923E+00   0.316359907218069E-02
   LPB:    0   0.262417040574923E+00   0.316349861478592E-02  -0.260258E-08   0.000000E+00   0.828689E+02  -0.215673E-06
   LPB:    1   0.262419286999936E+00   0.382725200368878E-02   0.193023E-01   0.000000E+00   0.115105E+04   0.132257E-22
   LPB:    2   0.262420418962671E+00   0.149744938475585E-01   0.209511E-01   0.464239E+00   0.340967E+03  -0.101194E-16
   LPB:    3   0.262421440321760E+00   0.468212276276045E-02   0.792921E-02   0.238410E+01   0.341040E+03  -0.362725E-16
   LPB:    4   0.262422623818944E+00   0.330605670712137E-02   0.302115E-01   0.304120E+00   0.139635E+03  -0.507474E-16
   LPB:    5   0.262423407977629E+00   0.414806067052977E-02   0.279142E-01   0.717108E+00   0.152286E+03  -0.346175E-16
   LPB:    6   0.262423750244371E+00   0.309093002006380E-02   0.120307E-01   0.101273E+01   0.195027E+03  -0.859517E-16
   LPB:    7   0.262423912739427E+00   0.302652316466237E-02   0.140298E-01   0.407111E+00   0.119837E+03  -0.103396E-15
   LPB:    8   0.262424034189703E+00   0.165348404987348E-02   0.154630E-01   0.678137E+00   0.803189E+02  -0.129883E-15
   LPB:    9   0.262424197355249E+00   0.168853076308746E-02   0.285136E-01   0.728570E+00   0.358976E+03  -0.146745E-15
   LPB:   10   0.262424288539493E+00   0.143264137473235E-02   0.185032E-01   0.861185E+00   0.184703E+03  -0.177425E-15
   LPB:   11   0.262424383688976E+00   0.344969330884155E-03   0.305994E-01   0.630988E+00   0.138564E+03  -0.161137E-15
   LPB:   12   0.262424427204547E+00   0.612037030289423E-03   0.253215E-01   0.552664E+00   0.176301E+03  -0.209505E-15
   LPB:   13   0.262424444400309E+00   0.184145361630786E-02   0.188075E-01   0.532029E+00   0.410395E+03  -0.235428E-15
   LPB:   14   0.262424461893941E+00   0.566008948367407E-03   0.857571E-02   0.223110E+01   0.440476E+03  -0.239370E-15
   LPB:   15   0.262424481947020E+00   0.563663307726715E-03   0.283119E-01   0.347218E+00   0.148019E+03  -0.243284E-15
   LPB:   16   0.262424493331748E+00   0.250305888294169E-03   0.145437E-01   0.110518E+01   0.164286E+03  -0.257452E-15
    LS:    0   0.262424450857203E+00   0.741028227962959E-05   0.149055136493492E-04
 resid(G=0) =  -2.365757598155049E-008
  NLPB:    2   0.262424450857203E+00   0.260855332395719E-03
   LPB:        0.262424450857203E+00   0.260855331322939E-03
   LPB:    0   0.262424450857203E+00   0.260875525327130E-03  -0.285482E-09   0.000000E+00   0.828689E+02  -0.236576E-07
   LPB:    1   0.262424456496041E+00   0.301550788605951E-03   0.160949E-01   0.000000E+00   0.442218E+03   0.539425E-24
   LPB:    2   0.262424461063120E+00   0.247773374870987E-03   0.188181E-01   0.692725E+00   0.899073E+03   0.518974E-19
   LPB:    3   0.262424464586287E+00   0.669047517036451E-03   0.230783E-01   0.629026E+00   0.206518E+03  -0.668749E-18
   LPB:    4   0.262424466617873E+00   0.267013941074288E-03   0.707927E-02   0.187982E+01   0.247960E+03  -0.461949E-17
   LPB:    5   0.262424470987880E+00   0.102410616856607E-03   0.332175E-01   0.458425E+00   0.153659E+04  -0.704877E-17
   LPB:    6   0.262424474358182E+00   0.220818599070730E-03   0.314039E-01   0.815777E+00   0.130920E+04  -0.976356E-17
   LPB:    7   0.262424475663556E+00   0.275254400942436E-03   0.177908E-01   0.683680E+00   0.110326E+03  -0.121178E-16
   LPB:    8   0.262424476777149E+00   0.233658506538150E-03   0.144584E-01   0.104970E+01   0.190630E+03  -0.161393E-16
   LPB:    9   0.262424477588900E+00   0.110663095110002E-03   0.155847E-01   0.676267E+00   0.331459E+03  -0.176994E-16
   LPB:   10   0.262424478286641E+00   0.843574689007111E-04   0.257473E-01   0.520284E+00   0.446827E+03  -0.204999E-16
   LPB:   11   0.262424478876754E+00   0.107649574897697E-03   0.240938E-01   0.903786E+00   0.192900E+03  -0.236300E-16
   LPB:   12   0.262424479334285E+00   0.973858390489380E-04   0.180127E-01   0.103708E+01   0.288034E+03  -0.253615E-16
   LPB:   13   0.262424479597336E+00   0.217217409715287E-03   0.165153E-01   0.627065E+00   0.124842E+03  -0.266016E-16
   LPB:   14   0.262424479845902E+00   0.660559419493869E-04   0.860551E-02   0.181348E+01   0.114371E+03  -0.278176E-16
   LPB:   15   0.262424480121822E+00   0.329455709655106E-04   0.250472E-01   0.381379E+00   0.160632E+03  -0.291499E-16
   LPB:   16   0.262424480296414E+00   0.268443824341983E-04   0.252701E-01   0.627184E+00   0.156613E+03  -0.300047E-16
   LPB:   17   0.262424480468571E+00   0.221085300031220E-04   0.386170E-01   0.645251E+00   0.247191E+03  -0.305707E-16
    LS:    0   0.262424480468408E+00   0.296112058761899E-07   0.592227373706768E-07
 resid(G=0) =  -1.744771549461177E-010
  NLPB:    3   0.262424480468408E+00   0.220784309091176E-04
   LPB:        0.262424480468408E+00   0.220784309084282E-04
   LPB:    0   0.262424480468408E+00   0.220782082687077E-04  -0.210546E-11   0.000000E+00   0.828689E+02  -0.174477E-09
   LPB:    1   0.262424480513210E+00   0.108221317464573E-04   0.159136E-01   0.000000E+00   0.411180E+03   0.373999E-26
   LPB:    2   0.262424480549545E+00   0.110479873275878E-04   0.372109E-01   0.346831E+00   0.717465E+03  -0.107847E-18
   LPB:    3   0.262424480577363E+00   0.129106522350617E-04   0.305469E-01   0.932659E+00   0.400292E+03  -0.329263E-18
   LPB:    4   0.262424480592198E+00   0.390189623836891E-04   0.197228E-01   0.825919E+00   0.344687E+03  -0.350710E-18
   LPB:    5   0.262424480599748E+00   0.206392915652470E-04   0.723346E-02   0.138779E+01   0.224250E+03  -0.344421E-18
   LPB:    6   0.262424480610470E+00   0.122284759336716E-04   0.199291E-01   0.515380E+00   0.137251E+03  -0.372793E-18
   LPB:    7   0.262424480618195E+00   0.116871045503736E-04   0.205835E-01   0.697653E+00   0.419683E+03  -0.566451E-18
   LPB:    8   0.262424480626114E+00   0.898020125838010E-05   0.224123E-01   0.941401E+00   0.408508E+03  -0.746768E-18
   LPB:    9   0.262424480631864E+00   0.183652652324706E-04   0.230007E-01   0.707653E+00   0.134115E+03  -0.947637E-18
   LPB:   10   0.262424480635539E+00   0.128503054963355E-04   0.134201E-01   0.109502E+01   0.316037E+03  -0.115243E-17
   LPB:   11   0.262424480638960E+00   0.904535755660444E-05   0.173903E-01   0.718548E+00   0.530756E+03  -0.132864E-17
   LPB:   12   0.262424480642422E+00   0.280300209118376E-05   0.227425E-01   0.773795E+00   0.142136E+03  -0.143888E-17
   LPB:   13   0.262424480644850E+00   0.191682086146170E-05   0.321074E-01   0.496838E+00   0.426752E+03  -0.167913E-17
    LS:    0   0.262424480644941E+00   0.176532177764699E-09   0.352883627575594E-09
 resid(G=0) =  -1.970854035526770E-012
  NLPB:    4   0.262424480644941E+00   0.191676258742904E-05
  Finished solving NLPB equations
 End minimization
 Ecorr=   2101.56165022336     
 A_corr=  0.473342614407778     
 Ecorr_band=  -2101.08830760895     
 End Solvation calculations
RMM:   7    -0.194844930760E+03   -0.99922E-01   -0.23516E-02  6674   0.140E-01    0.951E-01
deltaQ =   3.162565E-06
 Dsol_rc =      -0.01654513     -0.00950686     -0.00568210
 Dele =       0.00000000      0.00000000      0.10704611
alpha =   6.000000E-01
DIPOLC =       0.00000000      0.00000000      0.04463540
ZVAL =  -4.463540E-01
deltaQ =   3.162565E-06
 Dsol_rc =      -0.01654513     -0.00950686     -0.00568210
 Dele =       0.00000000      0.00000000      0.10704611
alpha =   6.000000E-01
DIPOLC =       0.00000000      0.00000000      0.04463540
ZVAL =  -4.463540E-01
deltaQ =   3.162565E-06
deltaQ =   3.162565E-06
 Dsol_rc =      -0.01654513     -0.00950686     -0.00568210
 Dele =       0.00000000      0.00000000      0.10704611
alpha =   6.000000E-01
DIPOLC =       0.00000000      0.00000000      0.04463540
ZVAL =  -4.463540E-01
deltaQ =   3.162565E-06
 Dsol_rc =      -0.01654513     -0.00950686     -0.00568210
 Dele =       0.00000000      0.00000000      0.10704611
alpha =   6.000000E-01
DIPOLC =       0.00000000      0.00000000      0.04463540
ZVAL =  -4.463540E-01
deltaQ =   3.162565E-06
 Dsol_rc =      -0.01654513     -0.00950686     -0.00568210
 Dele =       0.00000000      0.00000000      0.10704611
alpha =   6.000000E-01
DIPOLC =       0.00000000      0.00000000      0.04463540
ZVAL =  -4.463540E-01
deltaQ =   3.162565E-06
 Dsol_rc =      -0.01654513     -0.00950686     -0.00568210
 Dele =       0.00000000      0.00000000      0.10704611
alpha =   6.000000E-01
DIPOLC =       0.00000000      0.00000000      0.04463540
ZVAL =  -4.463540E-01
deltaQ =   3.162565E-06
 Dsol_rc =      -0.01654513     -0.00950686     -0.00568210
 Dele =       0.00000000      0.00000000      0.10704611
alpha =   6.000000E-01
DIPOLC =       0.00000000      0.00000000      0.04463540
ZVAL =  -4.463540E-01
deltaQ =   3.162565E-06
 Dsol_rc =      -0.01654513     -0.00950686     -0.00568210
 Dele =       0.00000000      0.00000000      0.10704611
alpha =   6.000000E-01
DIPOLC =       0.00000000      0.00000000      0.04463540
ZVAL =  -4.463540E-01
deltaQ =   3.162565E-06
 Dsol_rc =      -0.01654513     -0.00950686     -0.00568210
 Dele =       0.00000000      0.00000000      0.10704611
alpha =   6.000000E-01
DIPOLC =       0.00000000      0.00000000      0.04463540
ZVAL =  -4.463540E-01
deltaQ =   3.162565E-06
 Dsol_rc =      -0.01654513     -0.00950686     -0.00568210
 Dele =       0.00000000      0.00000000      0.10704611
alpha =   6.000000E-01
DIPOLC =       0.00000000      0.00000000      0.04463540
ZVAL =  -4.463540E-01
deltaQ =   3.162565E-06
 Dsol_rc =      -0.01654513     -0.00950686     -0.00568210
 Dele =       0.00000000      0.00000000      0.10704611
alpha =   6.000000E-01
DIPOLC =       0.00000000      0.00000000      0.04463540
ZVAL =  -4.463540E-01
deltaQ =   3.162565E-06
 Dsol_rc =      -0.01654513     -0.00950686     -0.00568210
 Dele =       0.00000000      0.00000000      0.10704611
alpha =   6.000000E-01
DIPOLC =       0.00000000      0.00000000      0.04463540
ZVAL =  -4.463540E-01
deltaQ =   3.162565E-06
 Dsol_rc =      -0.01654513     -0.00950686     -0.00568210
 Dele =       0.00000000      0.00000000      0.10704611
alpha =   6.000000E-01
DIPOLC =       0.00000000      0.00000000      0.04463540
ZVAL =  -4.463540E-01
deltaQ =   3.162565E-06
 Dsol_rc =      -0.01654513     -0.00950686     -0.00568210
 Dele =       0.00000000      0.00000000      0.10704611
alpha =   6.000000E-01
DIPOLC =       0.00000000      0.00000000      0.04463540
ZVAL =  -4.463540E-01
deltaQ =   3.162565E-06
 Dsol_rc =      -0.01654513     -0.00950686     -0.00568210
 Dele =       0.00000000      0.00000000      0.10704611
alpha =   6.000000E-01
DIPOLC =       0.00000000      0.00000000      0.04463540
ZVAL =  -4.463540E-01
 Dsol_rc =      -0.01654513     -0.00950686     -0.00568210
 Dele =       0.00000000      0.00000000      0.10704611
alpha =   6.000000E-01
DIPOLC =       0.00000000      0.00000000      0.04463540
ZVAL =  -4.463540E-01
 Begin Solvation calculations
  rms_SCF =   1.103682094826673E-004 tol =   1.103682094826673E-005
 Begin minimization
 Creating dielectric and ionic cavities
  area:      239.952488967244     
  volume:    3289.70352945481     
  A_cav:    0.210918237802207     
  qion_max:     4.88270828399377     
  Solving nonlinear dielectric/ionic screening model
  Starting outer loop
        iter                  A_solv                     rms
 resid(G=0) =   8.278928115279527E-007
  NLPB:    0   0.251635413462161E+00   0.540398621563836E-01
   LPB:        0.251635413462161E+00   0.540398621500419E-01
   LPB:    0   0.251635413462165E+00   0.540392162300845E-01   0.999035E-08   0.000000E+00   0.828692E+02   0.827893E-06
   LPB:    1   0.254109877086170E+00   0.832435633517126E+00   0.239436E+00   0.000000E+00   0.255154E+02   0.409205E-22
   LPB:    2   0.257932357974858E+00   0.359739399691851E+00   0.146880E-01   0.251820E+02   0.352352E+02  -0.290486E-14
   LPB:    3   0.261380406328761E+00   0.982025647332716E-01   0.215471E-01   0.614895E+00   0.614269E+02  -0.108544E-13
   LPB:    4   0.261565205204798E+00   0.215002001454063E-01   0.113011E-01   0.102187E+00   0.157390E+03  -0.228679E-13
   LPB:    5   0.261608336612096E+00   0.142351795624527E-01   0.184694E-01   0.142811E+00   0.107004E+04  -0.221024E-13
   LPB:    6   0.261622186375889E+00   0.346309842472579E-01   0.168909E-01   0.351115E+00   0.547208E+03  -0.219970E-13
   LPB:    7   0.261626819895194E+00   0.115132181948805E-01   0.600613E-02   0.940865E+00   0.347839E+03  -0.220667E-13
   LPB:    8   0.261632574215240E+00   0.446982475753062E-02   0.223494E-01   0.333743E+00   0.485311E+03  -0.220956E-13
    LS:    0   0.261632638936803E+00   0.999722547464188E-02   0.199943215061523E-01
 resid(G=0) =  -9.885218594657408E-007
  NLPB:    1   0.261632638936803E+00   0.455834152133071E-02
   LPB:        0.261632638936803E+00   0.455834141414529E-02
   LPB:    0   0.261632638936809E+00   0.455984010658316E-02  -0.119289E-07   0.000000E+00   0.828676E+02  -0.988522E-06
   LPB:    1   0.261634543492944E+00   0.472309858724842E-02   0.201311E-01   0.000000E+00   0.197351E+03  -0.249585E-22
   LPB:    2   0.261635451874451E+00   0.135108569945074E-01   0.189322E-01   0.507154E+00   0.395569E+03  -0.131517E-16
   LPB:    3   0.261636403117820E+00   0.349776755323887E-02   0.868761E-02   0.228205E+01   0.350990E+03   0.326679E-16
   LPB:    4   0.261637348740743E+00   0.214821973680768E-02   0.257378E-01   0.335548E+00   0.535609E+03   0.755712E-16
   LPB:    5   0.261637979318641E+00   0.284205065517376E-02   0.243391E-01   0.705160E+00   0.435316E+03   0.640088E-16
   LPB:    6   0.261638292457587E+00   0.178356897890441E-02   0.173838E-01   0.695279E+00   0.177471E+03   0.229295E-16
   LPB:    7   0.261638404864308E+00   0.315838334720380E-02   0.170779E-01   0.365397E+00   0.289162E+03   0.169914E-16
   LPB:    8   0.261638516142486E+00   0.207758916097111E-02   0.142380E-01   0.118741E+01   0.990500E+02  -0.182087E-16
   LPB:    9   0.261638648267107E+00   0.163083101508169E-02   0.302809E-01   0.558285E+00   0.556225E+03  -0.683438E-16
   LPB:   10   0.261638713280974E+00   0.840890651171522E-03   0.135164E-01   0.110237E+01   0.345711E+03  -0.904091E-16
   LPB:   11   0.261638780151934E+00   0.341636839584932E-03   0.310566E-01   0.447652E+00   0.561590E+03  -0.104577E-15
    LS:    0   0.261638777198308E+00   0.613826150475116E-05   0.122824302611121E-04
 resid(G=0) =  -1.958105395882814E-008
  NLPB:    2   0.261638777198308E+00   0.344766194545987E-03
   LPB:        0.261638777198308E+00   0.344766193989933E-03
   LPB:    0   0.261638777198308E+00   0.344773526153257E-03  -0.236293E-09   0.000000E+00   0.828677E+02  -0.195811E-07
   LPB:    1   0.261638798856649E+00   0.370536702518578E-03   0.200756E-01   0.000000E+00   0.776724E+03   0.191264E-24
   LPB:    2   0.261638812414442E+00   0.108755536052683E-02   0.253156E-01   0.496414E+00   0.401587E+03  -0.908172E-18
   LPB:    3   0.261638825370180E+00   0.120653712876896E-02   0.115622E-01   0.209228E+01   0.398759E+03  -0.516356E-17
   LPB:    4   0.261638835655766E+00   0.460455451396579E-03   0.931418E-02   0.985518E+00   0.434851E+03  -0.116633E-16
   LPB:    5   0.261638847835486E+00   0.637688984040345E-03   0.258547E-01   0.426593E+00   0.361387E+03  -0.189548E-16
   LPB:    6   0.261638853777910E+00   0.696767665957254E-03   0.165568E-01   0.761884E+00   0.180151E+03  -0.259098E-16
   LPB:    7   0.261638861894535E+00   0.286578982183212E-03   0.171578E-01   0.131804E+01   0.346563E+03  -0.398669E-16
   LPB:    8   0.261638867852903E+00   0.272020465346306E-03   0.234218E-01   0.537767E+00   0.388272E+03  -0.576140E-16
   LPB:    9   0.261638872817501E+00   0.189922889895988E-03   0.228265E-01   0.854942E+00   0.525290E+03  -0.674059E-16
   LPB:   10   0.261638876394064E+00   0.167870337101215E-03   0.245718E-01   0.669244E+00   0.557448E+03  -0.813134E-16
   LPB:   11   0.261638878166799E+00   0.142552769114678E-03   0.176241E-01   0.691047E+00   0.531516E+03  -0.944067E-16
   LPB:   12   0.261638880039183E+00   0.146496801350890E-03   0.264957E-01   0.702560E+00   0.242300E+03  -0.101452E-15
   LPB:   13   0.261638881519950E+00   0.133188708070213E-03   0.242178E-01   0.865232E+00   0.269997E+03  -0.111327E-15
   LPB:   14   0.261638881965103E+00   0.301064638994570E-03   0.129224E-01   0.563398E+00   0.328032E+03  -0.120916E-15
   LPB:   15   0.261638882618824E+00   0.645242679735696E-04   0.111818E-01   0.169712E+01   0.419839E+03  -0.124066E-15
   LPB:   16   0.261638883016553E+00   0.427240085040831E-04   0.217127E-01   0.313324E+00   0.469453E+03  -0.128795E-15
   LPB:   17   0.261638883246596E+00   0.244989417682956E-04   0.228360E-01   0.549938E+00   0.423615E+03  -0.131658E-15
    LS:    0   0.261638883247348E+00   0.106049040271561E-06   0.212096575395933E-06
 resid(G=0) =  -2.755466410597762E-010
  NLPB:    3   0.261638883247348E+00   0.245777197428363E-04
   LPB:        0.261638883247348E+00   0.245777197412917E-04
   LPB:    0   0.261638883247348E+00   0.245779669727684E-04  -0.332514E-11   0.000000E+00   0.828677E+02  -0.275547E-09
   LPB:    1   0.261638883336516E+00   0.227229720458266E-04   0.175059E-01   0.000000E+00   0.689717E+03   0.113250E-25
   LPB:    2   0.261638883439724E+00   0.266608384944560E-04   0.358253E-01   0.565591E+00   0.121724E+04  -0.301697E-18
   LPB:    3   0.261638883552449E+00   0.864424001342347E-04   0.280235E-01   0.139628E+01   0.793673E+03  -0.113732E-17
   LPB:    4   0.261638883594369E+00   0.559459116620734E-04   0.718080E-02   0.145127E+01   0.316262E+03  -0.201932E-17
   LPB:    5   0.261638883685549E+00   0.224262360689470E-04   0.233156E-01   0.669890E+00   0.631692E+03  -0.234266E-17
   LPB:    6   0.261638883751845E+00   0.284314274192134E-04   0.275938E-01   0.614372E+00   0.350830E+03  -0.304285E-17
   LPB:    7   0.261638883795002E+00   0.283723648353736E-04   0.209664E-01   0.856734E+00   0.358541E+03  -0.384593E-17
   LPB:    8   0.261638883831375E+00   0.299885224067217E-04   0.191880E-01   0.920918E+00   0.413298E+03  -0.516773E-17
   LPB:    9   0.261638883852430E+00   0.361427074013127E-04   0.157410E-01   0.705631E+00   0.312161E+03  -0.633811E-17
   LPB:   10   0.261638883871344E+00   0.214369737826497E-04   0.148059E-01   0.955055E+00   0.301489E+03  -0.709395E-17
   LPB:   11   0.261638883886857E+00   0.136274544078537E-04   0.220005E-01   0.551944E+00   0.284042E+03  -0.783977E-17
   LPB:   12   0.261638883898257E+00   0.855869818375366E-05   0.214898E-01   0.752360E+00   0.489340E+03  -0.848126E-17
   LPB:   13   0.261638883907905E+00   0.600120465999248E-05   0.297608E-01   0.611108E+00   0.456524E+03  -0.901180E-17
   LPB:   14   0.261638883913223E+00   0.105280455194041E-04   0.258061E-01   0.635666E+00   0.565422E+03  -0.962466E-17
   LPB:   15   0.261638883916695E+00   0.740227658913138E-05   0.157723E-01   0.106823E+01   0.483212E+03  -0.996707E-17
   LPB:   16   0.261638883918644E+00   0.172413256833071E-04   0.162740E-01   0.544085E+00   0.415453E+03  -0.101877E-16
   LPB:   17   0.261638883920384E+00   0.711527247097696E-05   0.872373E-02   0.166507E+01   0.362144E+03  -0.103437E-16
   LPB:   18   0.261638883923464E+00   0.440556258326424E-05   0.294660E-01   0.524173E+00   0.316454E+03  -0.104917E-16
   LPB:   19   0.261638883925913E+00   0.216514150650853E-05   0.249459E-01   0.938948E+00   0.485476E+03  -0.107704E-16
    LS:    0   0.261638883925878E+00   0.678529787911941E-09   0.135712922463310E-08
 resid(G=0) =  -2.954497757556851E-012
  NLPB:    4   0.261638883925878E+00   0.216514974849827E-05
  Finished solving NLPB equations
 End minimization
 Ecorr=   2085.79335492322     
 A_corr=  0.472557121728085     
 Ecorr_band=  -2085.32079780150     
 End Solvation calculations
RMM:   8    -0.194880819395E+03   -0.35889E-01   -0.70098E-03  6844   0.840E-02    0.115E+00
deltaQ =   3.148473E-06
 Dsol_rc =      -0.01645217     -0.00947351     -0.12576936
 Dele =       0.00000000      0.00000000      0.07693578
alpha =   6.000000E-01
DIPOLC =       0.00000000      0.00000000     -0.01144599
ZVAL =  -1.144599E-01
deltaQ =   3.148473E-06
deltaQ =   3.148473E-06
 Dsol_rc =      -0.01645217     -0.00947351     -0.12576936
 Dele =       0.00000000      0.00000000      0.07693578
alpha =   6.000000E-01
DIPOLC =       0.00000000      0.00000000     -0.01144599
ZVAL =  -1.144599E-01
deltaQ =   3.148473E-06
 Dsol_rc =      -0.01645217     -0.00947351     -0.12576936
 Dele =       0.00000000      0.00000000      0.07693578
alpha =   6.000000E-01
DIPOLC =       0.00000000      0.00000000     -0.01144599
ZVAL =  -1.144599E-01
deltaQ =   3.148473E-06
 Dsol_rc =      -0.01645217     -0.00947351     -0.12576936
 Dele =       0.00000000      0.00000000      0.07693578
alpha =   6.000000E-01
DIPOLC =       0.00000000      0.00000000     -0.01144599
ZVAL =  -1.144599E-01
deltaQ =   3.148473E-06
 Dsol_rc =      -0.01645217     -0.00947351     -0.12576936
 Dele =       0.00000000      0.00000000      0.07693578
alpha =   6.000000E-01
DIPOLC =       0.00000000      0.00000000     -0.01144599
ZVAL =  -1.144599E-01
deltaQ =   3.148473E-06
 Dsol_rc =      -0.01645217     -0.00947351     -0.12576936
 Dele =       0.00000000      0.00000000      0.07693578
alpha =   6.000000E-01
DIPOLC =       0.00000000      0.00000000     -0.01144599
ZVAL =  -1.144599E-01
deltaQ =   3.148473E-06
 Dsol_rc =      -0.01645217     -0.00947351     -0.12576936
 Dele =       0.00000000      0.00000000      0.07693578
alpha =   6.000000E-01
DIPOLC =       0.00000000      0.00000000     -0.01144599
ZVAL =  -1.144599E-01
deltaQ =   3.148473E-06
 Dsol_rc =      -0.01645217     -0.00947351     -0.12576936
 Dele =       0.00000000      0.00000000      0.07693578
alpha =   6.000000E-01
DIPOLC =       0.00000000      0.00000000     -0.01144599
ZVAL =  -1.144599E-01
deltaQ =   3.148473E-06
 Dsol_rc =      -0.01645217     -0.00947351     -0.12576936
 Dele =       0.00000000      0.00000000      0.07693578
alpha =   6.000000E-01
DIPOLC =       0.00000000      0.00000000     -0.01144599
ZVAL =  -1.144599E-01
deltaQ =   3.148473E-06
 Dsol_rc =      -0.01645217     -0.00947351     -0.12576936
 Dele =       0.00000000      0.00000000      0.07693578
alpha =   6.000000E-01
DIPOLC =       0.00000000      0.00000000     -0.01144599
ZVAL =  -1.144599E-01
deltaQ =   3.148473E-06
 Dsol_rc =      -0.01645217     -0.00947351     -0.12576936
 Dele =       0.00000000      0.00000000      0.07693578
alpha =   6.000000E-01
DIPOLC =       0.00000000      0.00000000     -0.01144599
ZVAL =  -1.144599E-01
deltaQ =   3.148473E-06
 Dsol_rc =      -0.01645217     -0.00947351     -0.12576936
 Dele =       0.00000000      0.00000000      0.07693578
alpha =   6.000000E-01
DIPOLC =       0.00000000      0.00000000     -0.01144599
ZVAL =  -1.144599E-01
deltaQ =   3.148473E-06
 Dsol_rc =      -0.01645217     -0.00947351     -0.12576936
 Dele =       0.00000000      0.00000000      0.07693578
alpha =   6.000000E-01
DIPOLC =       0.00000000      0.00000000     -0.01144599
ZVAL =  -1.144599E-01
deltaQ =   3.148473E-06
 Dsol_rc =      -0.01645217     -0.00947351     -0.12576936
 Dele =       0.00000000      0.00000000      0.07693578
alpha =   6.000000E-01
DIPOLC =       0.00000000      0.00000000     -0.01144599
ZVAL =  -1.144599E-01
deltaQ =   3.148473E-06
 Dsol_rc =      -0.01645217     -0.00947351     -0.12576936
 Dele =       0.00000000      0.00000000      0.07693578
alpha =   6.000000E-01
DIPOLC =       0.00000000      0.00000000     -0.01144599
ZVAL =  -1.144599E-01
 Dsol_rc =      -0.01645217     -0.00947351     -0.12576936
 Dele =       0.00000000      0.00000000      0.07693578
alpha =   6.000000E-01
DIPOLC =       0.00000000      0.00000000     -0.01144599
ZVAL =  -1.144599E-01
 Begin Solvation calculations
  rms_SCF =   1.103682094826673E-004 tol =   1.103682094826673E-005
 Begin minimization
 Creating dielectric and ionic cavities
  area:      239.952508302538     
  volume:    3289.70581488917     
  A_cav:    0.210918254797931     
  qion_max:     4.88270109682865     
  Solving nonlinear dielectric/ionic screening model
  Starting outer loop
        iter                  A_solv                     rms
 resid(G=0) =  -3.719508775285041E-007
  NLPB:    0   0.257504089550846E+00   0.281974608692102E-01
   LPB:        0.257504089550846E+00   0.281974608667570E-01
   LPB:    0   0.257504089550846E+00   0.281971837289049E-01  -0.448850E-08   0.000000E+00   0.828675E+02  -0.371951E-06
   LPB:    1   0.259306280815244E+00   0.647594513390355E+00   0.413009E+00   0.000000E+00   0.237825E+02   0.337909E-22
   LPB:    2   0.260964327719589E+00   0.187563443411784E+00   0.107890E-01   0.352189E+02   0.450312E+02  -0.436548E-15
   LPB:    3   0.261766073099518E+00   0.239303444654893E-01   0.175238E-01   0.297708E+00   0.971333E+02   0.717658E-15
   LPB:    4   0.261795644667971E+00   0.786174490296265E-02   0.129852E-01   0.497758E-01   0.403775E+03   0.203821E-14
   LPB:    5   0.261802344108523E+00   0.924540752728559E-02   0.194330E-01   0.151382E+00   0.704516E+03   0.180545E-14
   LPB:    6   0.261804465753707E+00   0.139044162224094E-01   0.132338E-01   0.465038E+00   0.254696E+03   0.186597E-14
   LPB:    7   0.261805324209254E+00   0.564476619391016E-02   0.657673E-02   0.814180E+00   0.304402E+03   0.186307E-14
   LPB:    8   0.261806393927808E+00   0.180993741663067E-02   0.213393E-01   0.384045E+00   0.359409E+03   0.186219E-14
    LS:    0   0.261806400100734E+00   0.430231054988794E-02   0.860460875392311E-02
 resid(G=0) =  -1.740653948756332E-007
  NLPB:    1   0.261806400100734E+00   0.179161975308807E-02
   LPB:        0.261806400100734E+00   0.179161974463238E-02
   LPB:    0   0.261806400100734E+00   0.179133865945788E-02  -0.210051E-08   0.000000E+00   0.828682E+02  -0.174065E-06
   LPB:    1   0.261806753828398E+00   0.224149038869777E-02   0.209462E-01   0.000000E+00   0.202687E+03  -0.123276E-22
   LPB:    2   0.261806916423158E+00   0.542904060322054E-02   0.178773E-01   0.538569E+00   0.308749E+03  -0.127382E-16
   LPB:    3   0.261807083587313E+00   0.219310706738006E-02   0.895742E-02   0.205189E+01   0.290179E+03  -0.429720E-17
   LPB:    4   0.261807247826927E+00   0.104152518002161E-02   0.200538E-01   0.438855E+00   0.324470E+03   0.250533E-17
   LPB:    5   0.261807375502465E+00   0.845890115035738E-03   0.250866E-01   0.621419E+00   0.476567E+03   0.994285E-17
   LPB:    6   0.261807441801136E+00   0.710145278067074E-03   0.204715E-01   0.636341E+00   0.293602E+03   0.179798E-16
   LPB:    7   0.261807464650366E+00   0.770419775146870E-03   0.168154E-01   0.419574E+00   0.305021E+03   0.153313E-16
   LPB:    8   0.261807487308141E+00   0.110614198228107E-02   0.211119E-01   0.789817E+00   0.135988E+03   0.167022E-16
   LPB:    9   0.261807504690265E+00   0.113952592845862E-02   0.192789E-01   0.840097E+00   0.317678E+03   0.250812E-16
   LPB:   10   0.261807520882657E+00   0.223685591484830E-03   0.131541E-01   0.136530E+01   0.316081E+03   0.182085E-16
   LPB:   11   0.261807532948107E+00   0.189231781536677E-03   0.329383E-01   0.297572E+00   0.164225E+04   0.119069E-16
   LPB:   12   0.261807538643432E+00   0.246377199096582E-03   0.251165E-01   0.619039E+00   0.401261E+03   0.848975E-17
   LPB:   13   0.261807541484730E+00   0.221788224614889E-03   0.163071E-01   0.768389E+00   0.472157E+03   0.532317E-17
   LPB:   14   0.261807544964492E+00   0.632274263677041E-03   0.250584E-01   0.796996E+00   0.540210E+03   0.182958E-17
   LPB:   15   0.261807546595689E+00   0.197270562018168E-03   0.645996E-02   0.181836E+01   0.352183E+03  -0.364116E-17
   LPB:   16   0.261807548898338E+00   0.788039608851927E-04   0.254268E-01   0.358641E+00   0.112674E+04  -0.630661E-17
    LS:    0   0.261807548179070E+00   0.114807833684338E-05   0.229759520826998E-05
 resid(G=0) =  -2.783316840893058E-009
  NLPB:    2   0.261807548179070E+00   0.783181194672699E-04
   LPB:        0.261807548179070E+00   0.783181194178123E-04
   LPB:    0   0.261807548179070E+00   0.783185815004214E-04  -0.335872E-10   0.000000E+00   0.828683E+02  -0.278332E-08
   LPB:    1   0.261807548996156E+00   0.866664478746475E-04   0.187194E-01   0.000000E+00   0.756850E+03   0.221827E-24
   LPB:    2   0.261807549517831E+00   0.271340204893657E-03   0.202825E-01   0.589254E+00   0.497470E+03   0.146072E-18
   LPB:    3   0.261807549900764E+00   0.116607727251050E-03   0.792096E-02   0.187960E+01   0.404108E+03   0.121541E-18
   LPB:    4   0.261807550441825E+00   0.651378360292106E-04   0.222429E-01   0.503164E+00   0.101236E+04   0.577544E-19
   LPB:    5   0.261807550881673E+00   0.890489707742214E-04   0.237869E-01   0.760170E+00   0.874282E+03  -0.178673E-18
   LPB:    6   0.261807551278687E+00   0.371799012332592E-04   0.194576E-01   0.110345E+01   0.744372E+03  -0.516892E-18
   LPB:    7   0.261807551609098E+00   0.395030444856675E-04   0.319905E-01   0.506193E+00   0.508538E+03  -0.878214E-18
   LPB:    8   0.261807551816167E+00   0.133528888066141E-03   0.244415E-01   0.820261E+00   0.293096E+03  -0.193974E-17
   LPB:    9   0.261807551941852E+00   0.490882441607174E-04   0.107813E-01   0.137603E+01   0.359325E+03  -0.256729E-17
   LPB:   10   0.261807552077047E+00   0.431048122680157E-04   0.267746E-01   0.433137E+00   0.390124E+03  -0.314782E-17
   LPB:   11   0.261807552161669E+00   0.425471716360198E-04   0.180732E-01   0.927271E+00   0.500996E+03  -0.422486E-17
   LPB:   12   0.261807552241010E+00   0.203198221381247E-04   0.212813E-01   0.796268E+00   0.238633E+03  -0.508665E-17
   LPB:   13   0.261807552292750E+00   0.244633578077006E-04   0.268354E-01   0.517143E+00   0.503884E+03  -0.593925E-17
   LPB:   14   0.261807552330579E+00   0.538374988399291E-04   0.220087E-01   0.891474E+00   0.184614E+03  -0.692233E-17
   LPB:   15   0.261807552345504E+00   0.342945818103039E-04   0.721441E-02   0.120364E+01   0.324370E+03  -0.795863E-17
   LPB:   16   0.261807552367765E+00   0.141844334265397E-04   0.177135E-01   0.607476E+00   0.162546E+03  -0.837996E-17
   LPB:   17   0.261807552386581E+00   0.114446083526896E-04   0.315614E-01   0.474377E+00   0.312028E+03  -0.911706E-17
   LPB:   18   0.261807552397041E+00   0.538036929620058E-05   0.193482E-01   0.906788E+00   0.690269E+03  -0.102032E-16
    LS:    0   0.261807552396921E+00   0.421785034676603E-08   0.843594148215965E-08
 resid(G=0) =  -2.052499836757704E-011
  NLPB:    3   0.261807552396921E+00   0.537895946208296E-05
  Finished solving NLPB equations
 End minimization
 Ecorr=   2090.86448019868     
 A_corr=  0.472725807194852     
 Ecorr_band=  -2090.39175439149     
 End Solvation calculations
RMM:   9    -0.194854661872E+03    0.26158E-01   -0.84383E-04  6579   0.352E-02    0.101E+00
deltaQ =   3.142611E-06
 Dsol_rc =      -0.01644911     -0.00948761     -0.07366521
 Dele =       0.00000000      0.00000000      0.06004997
alpha =   6.000000E-01
DIPOLC =       0.00000000      0.00000000     -0.01274754
ZVAL =  -1.274754E-01
deltaQ =   3.142611E-06
 Dsol_rc =      -0.01644911     -0.00948761     -0.07366521
 Dele =       0.00000000      0.00000000      0.06004997
alpha =   6.000000E-01
DIPOLC =       0.00000000      0.00000000     -0.01274754
ZVAL =  -1.274754E-01
deltaQ =   3.142611E-06
 Dsol_rc =      -0.01644911     -0.00948761     -0.07366521
 Dele =       0.00000000      0.00000000      0.06004997
alpha =   6.000000E-01
DIPOLC =       0.00000000      0.00000000     -0.01274754
ZVAL =  -1.274754E-01
deltaQ =   3.142611E-06
deltaQ =   3.142611E-06
 Dsol_rc =      -0.01644911     -0.00948761     -0.07366521
 Dele =       0.00000000      0.00000000      0.06004997
alpha =   6.000000E-01
DIPOLC =       0.00000000      0.00000000     -0.01274754
ZVAL =  -1.274754E-01
deltaQ =   3.142611E-06
 Dsol_rc =      -0.01644911     -0.00948761     -0.07366521
 Dele =       0.00000000      0.00000000      0.06004997
alpha =   6.000000E-01
DIPOLC =       0.00000000      0.00000000     -0.01274754
ZVAL =  -1.274754E-01
deltaQ =   3.142611E-06
 Dsol_rc =      -0.01644911     -0.00948761     -0.07366521
 Dele =       0.00000000      0.00000000      0.06004997
alpha =   6.000000E-01
DIPOLC =       0.00000000      0.00000000     -0.01274754
ZVAL =  -1.274754E-01
deltaQ =   3.142611E-06
 Dsol_rc =      -0.01644911     -0.00948761     -0.07366521
 Dele =       0.00000000      0.00000000      0.06004997
alpha =   6.000000E-01
DIPOLC =       0.00000000      0.00000000     -0.01274754
ZVAL =  -1.274754E-01
deltaQ =   3.142611E-06
 Dsol_rc =      -0.01644911     -0.00948761     -0.07366521
 Dele =       0.00000000      0.00000000      0.06004997
alpha =   6.000000E-01
DIPOLC =       0.00000000      0.00000000     -0.01274754
ZVAL =  -1.274754E-01
deltaQ =   3.142611E-06
 Dsol_rc =      -0.01644911     -0.00948761     -0.07366521
 Dele =       0.00000000      0.00000000      0.06004997
alpha =   6.000000E-01
DIPOLC =       0.00000000      0.00000000     -0.01274754
ZVAL =  -1.274754E-01
deltaQ =   3.142611E-06
 Dsol_rc =      -0.01644911     -0.00948761     -0.07366521
 Dele =       0.00000000      0.00000000      0.06004997
alpha =   6.000000E-01
DIPOLC =       0.00000000      0.00000000     -0.01274754
ZVAL =  -1.274754E-01
deltaQ =   3.142611E-06
 Dsol_rc =      -0.01644911     -0.00948761     -0.07366521
 Dele =       0.00000000      0.00000000      0.06004997
alpha =   6.000000E-01
DIPOLC =       0.00000000      0.00000000     -0.01274754
ZVAL =  -1.274754E-01
deltaQ =   3.142611E-06
 Dsol_rc =      -0.01644911     -0.00948761     -0.07366521
 Dele =       0.00000000      0.00000000      0.06004997
alpha =   6.000000E-01
DIPOLC =       0.00000000      0.00000000     -0.01274754
ZVAL =  -1.274754E-01
deltaQ =   3.142611E-06
 Dsol_rc =      -0.01644911     -0.00948761     -0.07366521
 Dele =       0.00000000      0.00000000      0.06004997
alpha =   6.000000E-01
DIPOLC =       0.00000000      0.00000000     -0.01274754
ZVAL =  -1.274754E-01
deltaQ =   3.142611E-06
 Dsol_rc =      -0.01644911     -0.00948761     -0.07366521
 Dele =       0.00000000      0.00000000      0.06004997
alpha =   6.000000E-01
DIPOLC =       0.00000000      0.00000000     -0.01274754
ZVAL =  -1.274754E-01
deltaQ =   3.142611E-06
 Dsol_rc =      -0.01644911     -0.00948761     -0.07366521
 Dele =       0.00000000      0.00000000      0.06004997
alpha =   6.000000E-01
DIPOLC =       0.00000000      0.00000000     -0.01274754
ZVAL =  -1.274754E-01
 Dsol_rc =      -0.01644911     -0.00948761     -0.07366521
 Dele =       0.00000000      0.00000000      0.06004997
alpha =   6.000000E-01
DIPOLC =       0.00000000      0.00000000     -0.01274754
ZVAL =  -1.274754E-01
 Begin Solvation calculations
  rms_SCF =   1.103682094826673E-004 tol =   1.103682094826673E-005
 Begin minimization
 Creating dielectric and ionic cavities
  area:      239.952511386759     
  volume:    3289.69826673521     
  A_cav:    0.210918257508961     
  qion_max:     4.88272319372728     
  Solving nonlinear dielectric/ionic screening model
  Starting outer loop
        iter                  A_solv                     rms
 resid(G=0) =   1.098393459353364E-006
  NLPB:    0   0.261736768801124E+00   0.298713491854122E-02
   LPB:        0.261736768801124E+00   0.298713471659717E-02
   LPB:    0   0.261736768801131E+00   0.298888715593802E-02   0.132546E-07   0.000000E+00   0.828686E+02   0.109839E-05
   LPB:    1   0.261737293952944E+00   0.102338472684580E-01   0.922952E-01   0.000000E+00   0.794585E+01   0.198065E-22
   LPB:    2   0.261738484961564E+00   0.913776502619835E-02   0.225329E-01   0.928948E+01   0.511356E+01   0.770138E-16
   LPB:    3   0.261740735680482E+00   0.772852594553501E-02   0.241620E-01   0.176235E+01   0.379292E+01   0.399051E-15
   LPB:    4   0.261741575619764E+00   0.122634263381661E-02   0.130507E-01   0.690917E+00   0.857831E+01   0.114939E-14
   LPB:    5   0.261741688747056E+00   0.347467202032634E-02   0.159724E-01   0.110048E+00   0.525461E+02   0.141439E-14
   LPB:    6   0.261741733465852E+00   0.924705642188869E-03   0.604936E-02   0.104372E+01   0.114407E+03   0.145645E-14
   LPB:    7   0.261741778519177E+00   0.221271120775069E-03   0.221890E-01   0.274668E+00   0.237217E+03   0.147430E-14
    LS:    0   0.261741778381318E+00   0.500958019383768E-05   0.100194361072138E-04
 resid(G=0) =  -1.003017696676878E-009
  NLPB:    1   0.261741778381318E+00   0.221643706774551E-03
   LPB:        0.261741778381318E+00   0.221643706772281E-03
   LPB:    0   0.261741778381318E+00   0.221644751748319E-03  -0.121037E-10   0.000000E+00   0.828687E+02  -0.100302E-08
   LPB:    1   0.261741791476747E+00   0.302863774593783E-03   0.197759E-01   0.000000E+00   0.947955E+03  -0.646461E-25
   LPB:    2   0.261741799186637E+00   0.110500781173311E-02   0.220417E-01   0.528227E+00   0.534844E+03  -0.347111E-18
   LPB:    3   0.261741804403561E+00   0.302712348119227E-03   0.713176E-02   0.209129E+01   0.412206E+03   0.794592E-18
   LPB:    4   0.261741811668415E+00   0.309893581138659E-03   0.293979E-01   0.337826E+00   0.371681E+03   0.186754E-17
   LPB:    5   0.261741814139029E+00   0.196528164356225E-03   0.149653E-01   0.668048E+00   0.318660E+03   0.328058E-17
   LPB:    6   0.261741815506861E+00   0.222461473950145E-03   0.170318E-01   0.486468E+00   0.241378E+03   0.368483E-17
   LPB:    7   0.261741816352798E+00   0.268979747620293E-03   0.135692E-01   0.776263E+00   0.133311E+03   0.505978E-17
   LPB:    8   0.261741817504370E+00   0.162150108416818E-03   0.235016E-01   0.785980E+00   0.308294E+03   0.675885E-17
   LPB:    9   0.261741818197895E+00   0.931361249062028E-04   0.159837E-01   0.885509E+00   0.124017E+03   0.468989E-17
   LPB:   10   0.261741818717163E+00   0.372816273097604E-04   0.237655E-01   0.503569E+00   0.754642E+03   0.302385E-17
   LPB:   11   0.261741819030378E+00   0.544336596427330E-04   0.276249E-01   0.518915E+00   0.413630E+03   0.339708E-17
   LPB:   12   0.261741819272945E+00   0.837683404410378E-04   0.283798E-01   0.753846E+00   0.185850E+03   0.329239E-17
   LPB:   13   0.261741819435257E+00   0.996239119287244E-04   0.139742E-01   0.135894E+01   0.166430E+03   0.271768E-17
   LPB:   14   0.261741819504623E+00   0.774383015628059E-04   0.806892E-02   0.740129E+00   0.237425E+03   0.231219E-17
   LPB:   15   0.261741819609912E+00   0.256808750977588E-04   0.165962E-01   0.737973E+00   0.298250E+03   0.209546E-17
   LPB:   16   0.261741819693321E+00   0.286748887295862E-04   0.283969E-01   0.462988E+00   0.185149E+03   0.170350E-17
   LPB:   17   0.261741819764159E+00   0.195236415858518E-04   0.283354E-01   0.851137E+00   0.612893E+02   0.148026E-17
    LS:    0   0.261741819778695E+00   0.413973771373755E-07   0.827656834072636E-07
 resid(G=0) =  -1.925340720188018E-010
  NLPB:    2   0.261741819778695E+00   0.195038230432743E-04
   LPB:        0.261741819778695E+00   0.195038230423240E-04
   LPB:    0   0.261741819778695E+00   0.195038504672424E-04  -0.232336E-11   0.000000E+00   0.828687E+02  -0.192534E-09
   LPB:    1   0.261741819809834E+00   0.155801281939709E-04   0.175853E-01   0.000000E+00   0.487273E+03   0.150173E-25
   LPB:    2   0.261741819832887E+00   0.135217790153790E-04   0.306966E-01   0.424122E+00   0.150548E+03  -0.285397E-19
   LPB:    3   0.261741819854152E+00   0.275361112277532E-04   0.297287E-01   0.952481E+00   0.817792E+02   0.302084E-18
   LPB:    4   0.261741819864611E+00   0.398216575496765E-04   0.110487E-01   0.132337E+01   0.117355E+03   0.681708E-18
   LPB:    5   0.261741819881204E+00   0.252958974289693E-04   0.135402E-01   0.129450E+01   0.826566E+02   0.867462E-18
   LPB:    6   0.261741819894731E+00   0.142475075234767E-04   0.152818E-01   0.722381E+00   0.629032E+02   0.117538E-17
   LPB:    7   0.261741819906122E+00   0.184815350028120E-04   0.246292E-01   0.522468E+00   0.326265E+02   0.141862E-17
   LPB:    8   0.261741819913279E+00   0.261273128619966E-04   0.150625E-01   0.102730E+01   0.372195E+02   0.168048E-17
   LPB:    9   0.261741819922975E+00   0.794526173478021E-05   0.187510E-01   0.108834E+01   0.352373E+02   0.183468E-17
   LPB:   10   0.261741819931319E+00   0.132411121003360E-04   0.277765E-01   0.580954E+00   0.395818E+02   0.208856E-17
   LPB:   11   0.261741819935887E+00   0.734653215816401E-05   0.188877E-01   0.805002E+00   0.233078E+02   0.229475E-17
   LPB:   12   0.261741819939480E+00   0.707611273196475E-05   0.235823E-01   0.630032E+00   0.250378E+02   0.217892E-17
   LPB:   13   0.261741819942476E+00   0.624363337230848E-05   0.223914E-01   0.878262E+00   0.374054E+02   0.209054E-17
   LPB:   14   0.261741819945274E+00   0.402072984452928E-05   0.238843E-01   0.875403E+00   0.303235E+02   0.199222E-17
   LPB:   15   0.261741819946615E+00   0.105451938337626E-04   0.222247E-01   0.514969E+00   0.714017E+02   0.192307E-17
   LPB:   16   0.261741819947210E+00   0.685288848187952E-05   0.747194E-02   0.132040E+01   0.816270E+02   0.193121E-17
   LPB:   17   0.261741819947976E+00   0.231083124638446E-05   0.157065E-01   0.612583E+00   0.382780E+02   0.192224E-17
   LPB:   18   0.261741819948983E+00   0.157041272089573E-05   0.372604E-01   0.553708E+00   0.447517E+02   0.193109E-17
    LS:    0   0.261741819948995E+00   0.170300662460932E-09   0.340576293318183E-09
 resid(G=0) =  -8.090472736199672E-013
  NLPB:    3   0.261741819948995E+00   0.157042475306519E-05
  Finished solving NLPB equations
 End minimization
 Ecorr=   2090.75135317502     
 A_corr=  0.472660077457957     
 Ecorr_band=  -2090.27869309756     
 End Solvation calculations
RMM:  10    -0.194851497614E+03    0.31643E-02   -0.12882E-04  6828   0.130E-02    0.996E-01
deltaQ =   3.146235E-06
 Dsol_rc =      -0.01648869     -0.00949043     -0.06953896
 Dele =       0.00000000      0.00000000      0.07604778
alpha =   3.000000E-01
DIPOLC =       0.00000000      0.00000000     -0.00697063
ZVAL =  -6.970629E-02
deltaQ =   3.146235E-06
deltaQ =   3.146235E-06
 Dsol_rc =      -0.01648869     -0.00949043     -0.06953896
 Dele =       0.00000000      0.00000000      0.07604778
alpha =   3.000000E-01
DIPOLC =       0.00000000      0.00000000     -0.00697063
ZVAL =  -6.970629E-02
deltaQ =   3.146235E-06
 Dsol_rc =      -0.01648869     -0.00949043     -0.06953896
 Dele =       0.00000000      0.00000000      0.07604778
alpha =   3.000000E-01
DIPOLC =       0.00000000      0.00000000     -0.00697063
ZVAL =  -6.970629E-02
deltaQ =   3.146235E-06
 Dsol_rc =      -0.01648869     -0.00949043     -0.06953896
 Dele =       0.00000000      0.00000000      0.07604778
alpha =   3.000000E-01
DIPOLC =       0.00000000      0.00000000     -0.00697063
ZVAL =  -6.970629E-02
deltaQ =   3.146235E-06
 Dsol_rc =      -0.01648869     -0.00949043     -0.06953896
 Dele =       0.00000000      0.00000000      0.07604778
alpha =   3.000000E-01
DIPOLC =       0.00000000      0.00000000     -0.00697063
ZVAL =  -6.970629E-02
deltaQ =   3.146235E-06
 Dsol_rc =      -0.01648869     -0.00949043     -0.06953896
 Dele =       0.00000000      0.00000000      0.07604778
alpha =   3.000000E-01
DIPOLC =       0.00000000      0.00000000     -0.00697063
ZVAL =  -6.970629E-02
deltaQ =   3.146235E-06
 Dsol_rc =      -0.01648869     -0.00949043     -0.06953896
 Dele =       0.00000000      0.00000000      0.07604778
alpha =   3.000000E-01
DIPOLC =       0.00000000      0.00000000     -0.00697063
ZVAL =  -6.970629E-02
deltaQ =   3.146235E-06
 Dsol_rc =      -0.01648869     -0.00949043     -0.06953896
 Dele =       0.00000000      0.00000000      0.07604778
alpha =   3.000000E-01
DIPOLC =       0.00000000      0.00000000     -0.00697063
ZVAL =  -6.970629E-02
deltaQ =   3.146235E-06
 Dsol_rc =      -0.01648869     -0.00949043     -0.06953896
 Dele =       0.00000000      0.00000000      0.07604778
alpha =   3.000000E-01
DIPOLC =       0.00000000      0.00000000     -0.00697063
ZVAL =  -6.970629E-02
deltaQ =   3.146235E-06
 Dsol_rc =      -0.01648869     -0.00949043     -0.06953896
 Dele =       0.00000000      0.00000000      0.07604778
alpha =   3.000000E-01
DIPOLC =       0.00000000      0.00000000     -0.00697063
ZVAL =  -6.970629E-02
deltaQ =   3.146235E-06
 Dsol_rc =      -0.01648869     -0.00949043     -0.06953896
 Dele =       0.00000000      0.00000000      0.07604778
alpha =   3.000000E-01
DIPOLC =       0.00000000      0.00000000     -0.00697063
ZVAL =  -6.970629E-02
deltaQ =   3.146235E-06
 Dsol_rc =      -0.01648869     -0.00949043     -0.06953896
 Dele =       0.00000000      0.00000000      0.07604778
alpha =   3.000000E-01
DIPOLC =       0.00000000      0.00000000     -0.00697063
ZVAL =  -6.970629E-02
deltaQ =   3.146235E-06
 Dsol_rc =      -0.01648869     -0.00949043     -0.06953896
 Dele =       0.00000000      0.00000000      0.07604778
alpha =   3.000000E-01
DIPOLC =       0.00000000      0.00000000     -0.00697063
ZVAL =  -6.970629E-02
deltaQ =   3.146235E-06
 Dsol_rc =      -0.01648869     -0.00949043     -0.06953896
 Dele =       0.00000000      0.00000000      0.07604778
alpha =   3.000000E-01
DIPOLC =       0.00000000      0.00000000     -0.00697063
ZVAL =  -6.970629E-02
deltaQ =   3.146235E-06
 Dsol_rc =      -0.01648869     -0.00949043     -0.06953896
 Dele =       0.00000000      0.00000000      0.07604778
alpha =   3.000000E-01
DIPOLC =       0.00000000      0.00000000     -0.00697063
ZVAL =  -6.970629E-02
 Dsol_rc =      -0.01648869     -0.00949043     -0.06953896
 Dele =       0.00000000      0.00000000      0.07604778
alpha =   3.000000E-01
DIPOLC =       0.00000000      0.00000000     -0.00697063
ZVAL =  -6.970629E-02
 Begin Solvation calculations
  rms_SCF =   1.103682094826673E-004 tol =   1.103682094826673E-005
 Begin minimization
 Creating dielectric and ionic cavities
  area:      239.952550334636     
  volume:    3289.69462206334     
  A_cav:    0.210918291744145     
  qion_max:     4.88273330782086     
  Solving nonlinear dielectric/ionic screening model
  Starting outer loop
        iter                  A_solv                     rms
 resid(G=0) =   5.011045980940487E-007
  NLPB:    0   0.261589092941946E+00   0.523620725874523E-02
   LPB:        0.261589092941946E+00   0.523620723476739E-02
   LPB:    0   0.261589092941947E+00   0.523574661601142E-02   0.604696E-08   0.000000E+00   0.828689E+02   0.501105E-06
   LPB:    1   0.261595521585246E+00   0.423061978103841E-01   0.123697E+00   0.000000E+00   0.244307E+02   0.404084E-23
   LPB:    2   0.261608859492174E+00   0.256588974323480E-01   0.186198E-01   0.137833E+02   0.268281E+02   0.180877E-15
   LPB:    3   0.261633763230721E+00   0.140256436183088E-01   0.306225E-01   0.113530E+01   0.279646E+02  -0.939911E-18
   LPB:    4   0.261636318586597E+00   0.240337455172101E-02   0.107878E-01   0.291270E+00   0.851854E+02  -0.168273E-14
   LPB:    5   0.261636787935739E+00   0.550819187662671E-02   0.166039E-01   0.119335E+00   0.467598E+03  -0.175129E-14
   LPB:    6   0.261636909754525E+00   0.213048226509931E-02   0.590772E-02   0.729470E+00   0.332204E+03  -0.177542E-14
   LPB:    7   0.261637047924173E+00   0.389899543029349E-03   0.182841E-01   0.366475E+00   0.102787E+04  -0.178572E-14
    LS:    0   0.261637048211250E+00   0.479552693045115E-04   0.959099644542594E-04
 resid(G=0) =  -7.612892705122221E-009
  NLPB:    1   0.261637048211250E+00   0.389310407733666E-03
   LPB:        0.261637048211250E+00   0.389310407659231E-03
   LPB:    0   0.261637048211250E+00   0.389306145185394E-03  -0.918669E-10   0.000000E+00   0.828687E+02  -0.761289E-08
   LPB:    1   0.261637089729671E+00   0.724626953471625E-03   0.187197E-01   0.000000E+00   0.145850E+04   0.109149E-24
   LPB:    2   0.261637109139645E+00   0.194074516940713E-02   0.163497E-01   0.535270E+00   0.390745E+03   0.395618E-17
   LPB:    3   0.261637129780137E+00   0.475957605532388E-03   0.891818E-02   0.194952E+01   0.445913E+03   0.301542E-17
   LPB:    4   0.261637149395531E+00   0.585671155260344E-03   0.267673E-01   0.316627E+00   0.287384E+03   0.429280E-18
   LPB:    5   0.261637157381079E+00   0.236044895673832E-03   0.150925E-01   0.722024E+00   0.191982E+03  -0.250047E-17
   LPB:    6   0.261637161498589E+00   0.329075688827876E-03   0.228433E-01   0.340669E+00   0.298757E+03   0.866845E-18
   LPB:    7   0.261637164127366E+00   0.480712582403997E-03   0.149927E-01   0.972739E+00   0.142492E+03  -0.114286E-17
   LPB:    8   0.261637166901950E+00   0.359206300825430E-03   0.191019E-01   0.828417E+00   0.293146E+03  -0.451616E-17
   LPB:    9   0.261637168668246E+00   0.106321851413299E-03   0.129284E-01   0.940586E+00   0.307375E+03  -0.465102E-17
   LPB:   10   0.261637169941557E+00   0.803159619744395E-04   0.248675E-01   0.374785E+00   0.864284E+03  -0.518076E-17
   LPB:   11   0.261637170886958E+00   0.662915610166878E-04   0.328890E-01   0.561387E+00   0.167688E+03  -0.543237E-17
   LPB:   12   0.261637171658801E+00   0.926431397913278E-04   0.375948E-01   0.714228E+00   0.956116E+03  -0.889139E-17
   LPB:   13   0.261637171890276E+00   0.146292418054378E-03   0.121596E-01   0.927219E+00   0.431954E+03  -0.995296E-17
   LPB:   14   0.261637172058417E+00   0.113958425691078E-03   0.951796E-02   0.927999E+00   0.408387E+03  -0.103486E-16
   LPB:   15   0.261637172257865E+00   0.339203015231145E-04   0.141646E-01   0.797065E+00   0.493590E+03  -0.107263E-16
    LS:    0   0.261637172232098E+00   0.124020848091266E-06   0.248093228884296E-06
 resid(G=0) =  -7.877602736794387E-010
  NLPB:    2   0.261637172232098E+00   0.338635522432077E-04
   LPB:        0.261637172232098E+00   0.338635522340450E-04
   LPB:    0   0.261637172232098E+00   0.338634133652246E-04  -0.950612E-11   0.000000E+00   0.828687E+02  -0.787760E-09
   LPB:    1   0.261637172334700E+00   0.600977653945489E-04   0.146972E-01   0.000000E+00   0.806126E+03   0.496250E-25
   LPB:    2   0.261637172392768E+00   0.875236547118886E-04   0.119393E-01   0.696693E+00   0.445303E+03  -0.694542E-19
   LPB:    3   0.261637172460652E+00   0.489830822885754E-04   0.113260E-01   0.123235E+01   0.493634E+03  -0.118605E-18
   LPB:    4   0.261637172556663E+00   0.140170074430376E-04   0.207398E-01   0.772368E+00   0.869557E+03  -0.166443E-18
   LPB:    5   0.261637172641355E+00   0.169519210785230E-04   0.354078E-01   0.516682E+00   0.975411E+03  -0.108986E-18
   LPB:    6   0.261637172700156E+00   0.243030819411309E-04   0.290863E-01   0.845196E+00   0.572778E+03  -0.104787E-18
   LPB:    7   0.261637172744776E+00   0.486471986548866E-04   0.218679E-01   0.100931E+01   0.489655E+03  -0.183628E-18
   LPB:    8   0.261637172774758E+00   0.400869024750780E-04   0.132690E-01   0.110741E+01   0.210874E+03  -0.241089E-18
   LPB:    9   0.261637172804692E+00   0.174066828668808E-04   0.181739E-01   0.728919E+00   0.312863E+03  -0.521166E-18
   LPB:   10   0.261637172823860E+00   0.196084660260986E-04   0.219823E-01   0.529415E+00   0.338049E+03  -0.690995E-18
   LPB:   11   0.261637172840984E+00   0.151436478574420E-04   0.199566E-01   0.984031E+00   0.418674E+03  -0.118426E-17
   LPB:   12   0.261637172858634E+00   0.133223564951000E-04   0.274187E-01   0.750212E+00   0.192648E+03  -0.161695E-17
   LPB:   13   0.261637172866450E+00   0.283895954925573E-04   0.187043E-01   0.649193E+00   0.298296E+03  -0.202636E-17
   LPB:   14   0.261637172870411E+00   0.137437107241203E-04   0.706829E-02   0.134070E+01   0.292326E+03  -0.233267E-17
   LPB:   15   0.261637172875240E+00   0.590064669431591E-05   0.188654E-01   0.456887E+00   0.379262E+03  -0.248528E-17
   LPB:   16   0.261637172881203E+00   0.390382259862656E-05   0.329467E-01   0.707062E+00   0.370144E+03  -0.260969E-17
   LPB:   17   0.261637172884495E+00   0.388124571620576E-05   0.240272E-01   0.756803E+00   0.499321E+03  -0.284121E-17
   LPB:   18   0.261637172885713E+00   0.346904709898107E-05   0.208667E-01   0.426398E+00   0.290413E+03  -0.293578E-17
   LPB:   19   0.261637172886700E+00   0.210387651659136E-05   0.290937E-01   0.580386E+00   0.197996E+03  -0.299995E-17
    LS:    0   0.261637172886671E+00   0.654572396285857E-09   0.130920256852761E-08
 resid(G=0) =  -3.201189313628561E-012
  NLPB:    3   0.261637172886671E+00   0.210353654751133E-05
  Finished solving NLPB equations
 End minimization
 Ecorr=   2088.96245036319     
 A_corr=  0.472555464630815     
 Ecorr_band=  -2088.48989489856     
 End Solvation calculations
RMM:  11    -0.194854322498E+03   -0.28249E-02   -0.43216E-05  6953   0.623E-03    0.101E+00
deltaQ =   3.147003E-06
 Dsol_rc =      -0.01648571     -0.00948701     -0.08219870
 Dele =       0.00000000      0.00000000      0.08096152
alpha =   6.000000E-01
DIPOLC =       0.00000000      0.00000000     -0.00353056
ZVAL =  -3.530563E-02
deltaQ =   3.147003E-06
 Dsol_rc =      -0.01648571     -0.00948701     -0.08219870
 Dele =       0.00000000      0.00000000      0.08096152
alpha =   6.000000E-01
DIPOLC =       0.00000000      0.00000000     -0.00353056
ZVAL =  -3.530563E-02
deltaQ =   3.147003E-06
 Dsol_rc =      -0.01648571     -0.00948701     -0.08219870
 Dele =       0.00000000      0.00000000      0.08096152
alpha =   6.000000E-01
DIPOLC =       0.00000000      0.00000000     -0.00353056
ZVAL =  -3.530563E-02
deltaQ =   3.147003E-06
 Dsol_rc =      -0.01648571     -0.00948701     -0.08219870
 Dele =       0.00000000      0.00000000      0.08096152
alpha =   6.000000E-01
DIPOLC =       0.00000000      0.00000000     -0.00353056
ZVAL =  -3.530563E-02
deltaQ =   3.147003E-06
 Dsol_rc =      -0.01648571     -0.00948701     -0.08219870
 Dele =       0.00000000      0.00000000      0.08096152
alpha =   6.000000E-01
DIPOLC =       0.00000000      0.00000000     -0.00353056
ZVAL =  -3.530563E-02
deltaQ =   3.147003E-06
 Dsol_rc =      -0.01648571     -0.00948701     -0.08219870
 Dele =       0.00000000      0.00000000      0.08096152
alpha =   6.000000E-01
DIPOLC =       0.00000000      0.00000000     -0.00353056
ZVAL =  -3.530563E-02
deltaQ =   3.147003E-06
deltaQ =   3.147003E-06
 Dsol_rc =      -0.01648571     -0.00948701     -0.08219870
 Dele =       0.00000000      0.00000000      0.08096152
alpha =   6.000000E-01
DIPOLC =       0.00000000      0.00000000     -0.00353056
ZVAL =  -3.530563E-02
deltaQ =   3.147003E-06
 Dsol_rc =      -0.01648571     -0.00948701     -0.08219870
 Dele =       0.00000000      0.00000000      0.08096152
alpha =   6.000000E-01
DIPOLC =       0.00000000      0.00000000     -0.00353056
ZVAL =  -3.530563E-02
deltaQ =   3.147003E-06
 Dsol_rc =      -0.01648571     -0.00948701     -0.08219870
 Dele =       0.00000000      0.00000000      0.08096152
alpha =   6.000000E-01
DIPOLC =       0.00000000      0.00000000     -0.00353056
ZVAL =  -3.530563E-02
deltaQ =   3.147003E-06
 Dsol_rc =      -0.01648571     -0.00948701     -0.08219870
 Dele =       0.00000000      0.00000000      0.08096152
alpha =   6.000000E-01
DIPOLC =       0.00000000      0.00000000     -0.00353056
ZVAL =  -3.530563E-02
deltaQ =   3.147003E-06
 Dsol_rc =      -0.01648571     -0.00948701     -0.08219870
 Dele =       0.00000000      0.00000000      0.08096152
alpha =   6.000000E-01
DIPOLC =       0.00000000      0.00000000     -0.00353056
ZVAL =  -3.530563E-02
deltaQ =   3.147003E-06
 Dsol_rc =      -0.01648571     -0.00948701     -0.08219870
 Dele =       0.00000000      0.00000000      0.08096152
alpha =   6.000000E-01
DIPOLC =       0.00000000      0.00000000     -0.00353056
ZVAL =  -3.530563E-02
deltaQ =   3.147003E-06
 Dsol_rc =      -0.01648571     -0.00948701     -0.08219870
 Dele =       0.00000000      0.00000000      0.08096152
alpha =   6.000000E-01
DIPOLC =       0.00000000      0.00000000     -0.00353056
ZVAL =  -3.530563E-02
deltaQ =   3.147003E-06
 Dsol_rc =      -0.01648571     -0.00948701     -0.08219870
 Dele =       0.00000000      0.00000000      0.08096152
alpha =   6.000000E-01
DIPOLC =       0.00000000      0.00000000     -0.00353056
ZVAL =  -3.530563E-02
deltaQ =   3.147003E-06
 Dsol_rc =      -0.01648571     -0.00948701     -0.08219870
 Dele =       0.00000000      0.00000000      0.08096152
alpha =   6.000000E-01
DIPOLC =       0.00000000      0.00000000     -0.00353056
ZVAL =  -3.530563E-02
 Dsol_rc =      -0.01648571     -0.00948701     -0.08219870
 Dele =       0.00000000      0.00000000      0.08096152
alpha =   6.000000E-01
DIPOLC =       0.00000000      0.00000000     -0.00353056
ZVAL =  -3.530563E-02
 Begin Solvation calculations
  rms_SCF =   1.103682094826673E-004 tol =   1.103682094826673E-005
 Begin minimization
 Creating dielectric and ionic cavities
  area:      239.952531229505     
  volume:    3289.69368993836     
  A_cav:    0.210918274950735     
  qion_max:     4.88273603812329     
  Solving nonlinear dielectric/ionic screening model
  Starting outer loop
        iter                  A_solv                     rms
 resid(G=0) =   1.380527897276718E-007
  NLPB:    0   0.261574699800453E+00   0.238511378276385E-02
   LPB:        0.261574699800453E+00   0.238511377876854E-02
   LPB:    0   0.261574699800453E+00   0.238500449595579E-02   0.166592E-08   0.000000E+00   0.828688E+02   0.138053E-06
   LPB:    1   0.261577947186262E+00   0.307669746906747E-01   0.189784E+00   0.000000E+00   0.270194E+02  -0.814493E-23
   LPB:    2   0.261583900017161E+00   0.152040167332188E-01   0.164669E-01   0.211270E+02   0.333777E+02   0.558729E-16
   LPB:    3   0.261590473012187E+00   0.512333516610849E-02   0.235106E-01   0.773370E+00   0.511039E+02  -0.117581E-15
   LPB:    4   0.261590931245405E+00   0.111228682349903E-02   0.110545E-01   0.148269E+00   0.150302E+03  -0.793538E-15
   LPB:    5   0.261591012254829E+00   0.208347101207783E-02   0.158499E-01   0.123299E+00   0.755596E+03  -0.803540E-15
   LPB:    6   0.261591034213290E+00   0.115570313492200E-02   0.653885E-02   0.657040E+00   0.337537E+03  -0.810142E-15
   LPB:    7   0.261591058620045E+00   0.247213161446498E-03   0.148374E-01   0.489838E+00   0.712851E+03  -0.812863E-15
   LPB:    8   0.261591070522743E+00   0.202736371371177E-03   0.272539E-01   0.265500E+00   0.480178E+03  -0.815020E-15
    LS:    0   0.261591070529204E+00   0.163707287510473E-04   0.327414445804299E-04
 resid(G=0) =  -2.221411138370044E-009
  NLPB:    1   0.261591070529204E+00   0.202910291292210E-03
   LPB:        0.261591070529204E+00   0.202910291280050E-03
   LPB:    0   0.261591070529204E+00   0.202913644182169E-03  -0.268064E-10   0.000000E+00   0.828687E+02  -0.222141E-08
   LPB:    1   0.261591074346782E+00   0.152334935196910E-03   0.202437E-01   0.000000E+00   0.195849E+03   0.944918E-25
   LPB:    2   0.261591077326932E+00   0.255380909531189E-03   0.343127E-01   0.460559E+00   0.481037E+03  -0.243445E-17
   LPB:    3   0.261591078516153E+00   0.424947933044410E-03   0.116944E-01   0.117085E+01   0.361432E+03  -0.256650E-17
   LPB:    4   0.261591079839669E+00   0.183241863890421E-03   0.103269E-01   0.126030E+01   0.410808E+03  -0.245117E-17
   LPB:    5   0.261591080957645E+00   0.127320024736423E-03   0.173428E-01   0.502986E+00   0.394818E+03  -0.262059E-17
   LPB:    6   0.261591081699300E+00   0.572414279319678E-04   0.179075E-01   0.642468E+00   0.356185E+03  -0.300987E-17
   LPB:    7   0.261591081983181E+00   0.728897163755582E-04   0.202625E-01   0.338281E+00   0.333227E+03  -0.259654E-17
   LPB:    8   0.261591082237877E+00   0.124809893334836E-03   0.231925E-01   0.783847E+00   0.105080E+03  -0.243485E-17
   LPB:    9   0.261591082416008E+00   0.117158597836730E-03   0.169353E-01   0.957790E+00   0.302095E+03  -0.335056E-17
   LPB:   10   0.261591082594200E+00   0.298832855702522E-04   0.142056E-01   0.119258E+01   0.200343E+03  -0.252821E-17
   LPB:   11   0.261591082719684E+00   0.304475497271278E-04   0.326558E-01   0.306335E+00   0.631487E+03  -0.156291E-17
   LPB:   12   0.261591082769275E+00   0.252252290600744E-04   0.169054E-01   0.763396E+00   0.359676E+03  -0.135164E-17
   LPB:   13   0.261591082812739E+00   0.197557348615778E-04   0.215709E-01   0.686887E+00   0.519499E+03  -0.124885E-17
    LS:    0   0.261591082812309E+00   0.122831059212736E-07   0.245670714464815E-07
 resid(G=0) =  -4.453852564534344E-011
  NLPB:    2   0.261591082812309E+00   0.197540957570820E-04
   LPB:        0.261591082812309E+00   0.197540957570318E-04
   LPB:    0   0.261591082812309E+00   0.197540910375892E-04  -0.537459E-12   0.000000E+00   0.828687E+02  -0.445385E-10
   LPB:    1   0.261591082832042E+00   0.391578913887771E-04   0.134312E-01   0.000000E+00   0.549957E+03  -0.602471E-27
   LPB:    2   0.261591082843466E+00   0.313914537107878E-04   0.888360E-02   0.875245E+00   0.388811E+03  -0.439791E-19
   LPB:    3   0.261591082860084E+00   0.200779855659473E-04   0.159428E-01   0.810610E+00   0.528824E+03  -0.355920E-19
   LPB:    4   0.261591082879525E+00   0.111904424634765E-04   0.225939E-01   0.825509E+00   0.549141E+03   0.827182E-19
   LPB:    5   0.261591082894952E+00   0.137218449925149E-04   0.271205E-01   0.661071E+00   0.206391E+03   0.234231E-18
   LPB:    6   0.261591082906598E+00   0.232232655534448E-04   0.208899E-01   0.980077E+00   0.443861E+03   0.141125E-18
   LPB:    7   0.261591082912433E+00   0.201338810491005E-04   0.143019E-01   0.731751E+00   0.188794E+03   0.108198E-18
   LPB:    8   0.261591082919772E+00   0.645729038638348E-05   0.179385E-01   0.100296E+01   0.940000E+03   0.123627E-18
   LPB:    9   0.261591082927417E+00   0.956694635303279E-05   0.317537E-01   0.588405E+00   0.782339E+03   0.109642E-18
   LPB:   10   0.261591082931711E+00   0.779654812054461E-05   0.180166E-01   0.990049E+00   0.230231E+03   0.546235E-19
   LPB:   11   0.261591082934865E+00   0.593001855347979E-05   0.212724E-01   0.622032E+00   0.492784E+03  -0.472805E-19
   LPB:   12   0.261591082936805E+00   0.738511660411356E-05   0.188194E-01   0.695065E+00   0.296481E+03  -0.346950E-19
   LPB:   13   0.261591082937758E+00   0.125713697644401E-04   0.128783E-01   0.718063E+00   0.261939E+03  -0.193166E-19
   LPB:   14   0.261591082938766E+00   0.436465817928914E-05   0.971571E-02   0.140215E+01   0.200446E+03  -0.316782E-19
   LPB:   15   0.261591082940568E+00   0.268705066417993E-05   0.362700E-01   0.478821E+00   0.301630E+03  -0.517087E-19
   LPB:   16   0.261591082941267E+00   0.139957065743739E-05   0.175989E-01   0.799319E+00   0.519498E+03   0.102741E-18
    LS:    0   0.261591082941241E+00   0.128931643139651E-09   0.257914315812410E-09
 resid(G=0) =  -8.317235788979360E-013
  NLPB:    3   0.261591082941241E+00   0.139965335413368E-05
  Finished solving NLPB equations
 End minimization
 Ecorr=   2088.17544461855     
 A_corr=  0.472509357891976     
 Ecorr_band=  -2087.70293526066     
 End Solvation calculations
RMM:  12    -0.194855701185E+03   -0.13787E-02   -0.14511E-05  7076   0.356E-03    0.102E+00
deltaQ =   3.146321E-06
 Dsol_rc =      -0.01648028     -0.00948573     -0.08780214
 Dele =       0.00000000      0.00000000      0.09992138
alpha =   6.000000E-01
DIPOLC =       0.00000000      0.00000000      0.00585932
ZVAL =  -5.859318E-02
deltaQ =   3.146321E-06
 Dsol_rc =      -0.01648028     -0.00948573     -0.08780214
 Dele =       0.00000000      0.00000000      0.09992138
alpha =   6.000000E-01
DIPOLC =       0.00000000      0.00000000      0.00585932
ZVAL =  -5.859318E-02
deltaQ =   3.146321E-06
deltaQ =   3.146321E-06
 Dsol_rc =      -0.01648028     -0.00948573     -0.08780214
 Dele =       0.00000000      0.00000000      0.09992138
alpha =   6.000000E-01
DIPOLC =       0.00000000      0.00000000      0.00585932
ZVAL =  -5.859318E-02
deltaQ =   3.146321E-06
 Dsol_rc =      -0.01648028     -0.00948573     -0.08780214
 Dele =       0.00000000      0.00000000      0.09992138
alpha =   6.000000E-01
DIPOLC =       0.00000000      0.00000000      0.00585932
ZVAL =  -5.859318E-02
deltaQ =   3.146321E-06
 Dsol_rc =      -0.01648028     -0.00948573     -0.08780214
 Dele =       0.00000000      0.00000000      0.09992138
alpha =   6.000000E-01
DIPOLC =       0.00000000      0.00000000      0.00585932
ZVAL =  -5.859318E-02
deltaQ =   3.146321E-06
 Dsol_rc =      -0.01648028     -0.00948573     -0.08780214
 Dele =       0.00000000      0.00000000      0.09992138
alpha =   6.000000E-01
DIPOLC =       0.00000000      0.00000000      0.00585932
ZVAL =  -5.859318E-02
deltaQ =   3.146321E-06
 Dsol_rc =      -0.01648028     -0.00948573     -0.08780214
 Dele =       0.00000000      0.00000000      0.09992138
alpha =   6.000000E-01
DIPOLC =       0.00000000      0.00000000      0.00585932
ZVAL =  -5.859318E-02
deltaQ =   3.146321E-06
 Dsol_rc =      -0.01648028     -0.00948573     -0.08780214
 Dele =       0.00000000      0.00000000      0.09992138
alpha =   6.000000E-01
DIPOLC =       0.00000000      0.00000000      0.00585932
ZVAL =  -5.859318E-02
deltaQ =   3.146321E-06
 Dsol_rc =      -0.01648028     -0.00948573     -0.08780214
 Dele =       0.00000000      0.00000000      0.09992138
alpha =   6.000000E-01
DIPOLC =       0.00000000      0.00000000      0.00585932
ZVAL =  -5.859318E-02
deltaQ =   3.146321E-06
 Dsol_rc =      -0.01648028     -0.00948573     -0.08780214
 Dele =       0.00000000      0.00000000      0.09992138
alpha =   6.000000E-01
DIPOLC =       0.00000000      0.00000000      0.00585932
ZVAL =  -5.859318E-02
deltaQ =   3.146321E-06
 Dsol_rc =      -0.01648028     -0.00948573     -0.08780214
 Dele =       0.00000000      0.00000000      0.09992138
alpha =   6.000000E-01
DIPOLC =       0.00000000      0.00000000      0.00585932
ZVAL =  -5.859318E-02
deltaQ =   3.146321E-06
 Dsol_rc =      -0.01648028     -0.00948573     -0.08780214
 Dele =       0.00000000      0.00000000      0.09992138
alpha =   6.000000E-01
DIPOLC =       0.00000000      0.00000000      0.00585932
ZVAL =  -5.859318E-02
deltaQ =   3.146321E-06
 Dsol_rc =      -0.01648028     -0.00948573     -0.08780214
 Dele =       0.00000000      0.00000000      0.09992138
alpha =   6.000000E-01
DIPOLC =       0.00000000      0.00000000      0.00585932
ZVAL =  -5.859318E-02
deltaQ =   3.146321E-06
 Dsol_rc =      -0.01648028     -0.00948573     -0.08780214
 Dele =       0.00000000      0.00000000      0.09992138
alpha =   6.000000E-01
DIPOLC =       0.00000000      0.00000000      0.00585932
ZVAL =  -5.859318E-02
deltaQ =   3.146321E-06
 Dsol_rc =      -0.01648028     -0.00948573     -0.08780214
 Dele =       0.00000000      0.00000000      0.09992138
alpha =   6.000000E-01
DIPOLC =       0.00000000      0.00000000      0.00585932
ZVAL =  -5.859318E-02
 Dsol_rc =      -0.01648028     -0.00948573     -0.08780214
 Dele =       0.00000000      0.00000000      0.09992138
alpha =   6.000000E-01
DIPOLC =       0.00000000      0.00000000      0.00585932
ZVAL =  -5.859318E-02
 Begin Solvation calculations
  rms_SCF =   1.103682094826673E-004 tol =   1.103682094826673E-005
 Begin minimization
 Creating dielectric and ionic cavities
  area:      239.952490173769     
  volume:    3289.70113747550     
  A_cav:    0.210918238862743     
  qion_max:     4.88271437998124     
  Solving nonlinear dielectric/ionic screening model
  Starting outer loop
        iter                  A_solv                     rms
 resid(G=0) =  -1.096320090598901E-006
  NLPB:    0   0.261422003414425E+00   0.638729492065074E-02
   LPB:        0.261422003414425E+00   0.638729482656414E-02
   LPB:    0   0.261422003414432E+00   0.638834729429356E-02  -0.132297E-07   0.000000E+00   0.828683E+02  -0.109632E-05
   LPB:    1   0.261455558471756E+00   0.943385675016853E-01   0.259294E+00   0.000000E+00   0.196812E+02  -0.195025E-22
   LPB:    2   0.261502810237819E+00   0.409759813512055E-01   0.141458E-01   0.258121E+02   0.267592E+02  -0.272193E-15
   LPB:    3   0.261543795197847E+00   0.114917082947012E-01   0.200579E-01   0.611716E+00   0.547992E+02  -0.117903E-14
   LPB:    4   0.261546535410080E+00   0.446301754217640E-02   0.114831E-01   0.116785E+00   0.157887E+03  -0.235050E-14
   LPB:    5   0.261546934661534E+00   0.719273778066944E-02   0.107234E-01   0.156022E+00   0.433289E+03  -0.233464E-14
   LPB:    6   0.261547195920431E+00   0.183336476880483E-02   0.762066E-02   0.920802E+00   0.447249E+03  -0.233897E-14
   LPB:    7   0.261547375660029E+00   0.734832196991934E-03   0.183687E-01   0.285421E+00   0.832380E+03  -0.234764E-14
   LPB:    8   0.261547460534955E+00   0.608896787524994E-03   0.278548E-01   0.311397E+00   0.286769E+03  -0.235341E-14
    LS:    0   0.261547460945699E+00   0.125457531274020E-03   0.250914241060616E-03
 resid(G=0) =  -1.185790311775126E-008
  NLPB:    1   0.261547460945699E+00   0.610011984749921E-03
   LPB:        0.261547460945699E+00   0.610011984634669E-03
   LPB:    0   0.261547460945699E+00   0.610029718542607E-03  -0.143094E-09   0.000000E+00   0.828681E+02  -0.118579E-07
   LPB:    1   0.261547487789394E+00   0.527613954302338E-03   0.194751E-01   0.000000E+00   0.166853E+03   0.105506E-23
   LPB:    2   0.261547505440692E+00   0.669378229528214E-03   0.256224E-01   0.499798E+00   0.459369E+03   0.331313E-17
   LPB:    3   0.261547520262818E+00   0.627584005230468E-03   0.173462E-01   0.124037E+01   0.290141E+03   0.134870E-16
   LPB:    4   0.261547527374913E+00   0.110694574868589E-02   0.125255E-01   0.664502E+00   0.357163E+03   0.224197E-16
   LPB:    5   0.261547535911050E+00   0.285014587194215E-03   0.103479E-01   0.145280E+01   0.394515E+03   0.269495E-16
   LPB:    6   0.261547542589449E+00   0.148075540434897E-03   0.220307E-01   0.367481E+00   0.419126E+03   0.310303E-16
   LPB:    7   0.261547544827894E+00   0.211173877243089E-03   0.195752E-01   0.377221E+00   0.386863E+03   0.331489E-16
   LPB:    8   0.261547546583486E+00   0.382490048968253E-03   0.218739E-01   0.701873E+00   0.935501E+02   0.346100E-16
   LPB:    9   0.261547547849276E+00   0.265690428272121E-03   0.143086E-01   0.110221E+01   0.290991E+03   0.310640E-16
   LPB:   10   0.261547549468466E+00   0.783609867782787E-04   0.194391E-01   0.941581E+00   0.218204E+03   0.318896E-16
   LPB:   11   0.261547550488720E+00   0.684009580936322E-04   0.354703E-01   0.345319E+00   0.473989E+03   0.343089E-16
   LPB:   12   0.261547550883032E+00   0.736933314811951E-04   0.193638E-01   0.707958E+00   0.406957E+03   0.328532E-16
   LPB:   13   0.261547551171865E+00   0.435319819378520E-04   0.183782E-01   0.771781E+00   0.567181E+03   0.324426E-16
    LS:    0   0.261547551146090E+00   0.902003910452365E-07   0.180452331709640E-06
 resid(G=0) =  -3.780754875837289E-010
  NLPB:    2   0.261547551146090E+00   0.435142887054974E-04
   LPB:        0.261547551146090E+00   0.435142887038549E-04
   LPB:    0   0.261547551146090E+00   0.435142004677421E-04  -0.456238E-11   0.000000E+00   0.828681E+02  -0.378075E-09
   LPB:    1   0.261547551302396E+00   0.634034006455006E-04   0.154009E-01   0.000000E+00   0.653006E+03   0.268270E-25
   LPB:    2   0.261547551408208E+00   0.113671772669187E-03   0.149657E-01   0.696635E+00   0.484796E+03  -0.935069E-19
   LPB:    3   0.261547551502117E+00   0.761195133821445E-04   0.968846E-02   0.137094E+01   0.409061E+03   0.157686E-18
   LPB:    4   0.261547551651132E+00   0.290334542647120E-04   0.195355E-01   0.786960E+00   0.595404E+03   0.435627E-18
   LPB:    5   0.261547551780756E+00   0.366957453306260E-04   0.326185E-01   0.520977E+00   0.156363E+03   0.802247E-18
   LPB:    6   0.261547551858193E+00   0.579476510515664E-04   0.217001E-01   0.897967E+00   0.501182E+03  -0.636037E-18
   LPB:    7   0.261547551901217E+00   0.585846150012229E-04   0.146044E-01   0.825556E+00   0.184246E+03  -0.121270E-17
   LPB:    8   0.261547551953245E+00   0.193038478257597E-04   0.176686E-01   0.999546E+00   0.826077E+03  -0.146086E-17
   LPB:    9   0.261547552011185E+00   0.195971941265278E-04   0.292048E-01   0.673740E+00   0.809676E+03  -0.201333E-17
   LPB:   10   0.261547552044023E+00   0.211293784336277E-04   0.218985E-01   0.755863E+00   0.188740E+03  -0.271912E-17
   LPB:   11   0.261547552066099E+00   0.149093884124281E-04   0.229945E-01   0.640196E+00   0.271557E+03  -0.322511E-17
   LPB:   12   0.261547552079208E+00   0.210286412203081E-04   0.204369E-01   0.668146E+00   0.475022E+03  -0.303444E-17
   LPB:   13   0.261547552086115E+00   0.281975670356777E-04   0.120819E-01   0.891269E+00   0.209229E+03  -0.300036E-17
   LPB:   14   0.261547552092498E+00   0.201109382478427E-04   0.101548E-01   0.109959E+01   0.204728E+03  -0.305952E-17
   LPB:   15   0.261547552105250E+00   0.595685944631777E-05   0.246464E-01   0.823068E+00   0.333639E+03  -0.308760E-17
   LPB:   16   0.261547552110559E+00   0.306693182003502E-05   0.196703E-01   0.521587E+00   0.739910E+03  -0.298170E-17
    LS:    0   0.261547552110937E+00   0.964846480489001E-09   0.192893706535165E-08
 resid(G=0) =  -5.259320756678676E-012
  NLPB:    3   0.261547552110937E+00   0.306701785749434E-05
  Finished solving NLPB equations
 End minimization
 Ecorr=   2086.90510430366     
 A_corr=  0.472465790973680     
 Ecorr_band=  -2086.43263851268     
 End Solvation calculations
RMM:  13    -0.194860833276E+03   -0.51321E-02   -0.71009E-05  7951   0.746E-03    0.105E+00
deltaQ =   3.146113E-06
 Dsol_rc =      -0.01647465     -0.00948089     -0.10045810
 Dele =       0.00000000      0.00000000      0.08336225
alpha =   3.000000E-01
DIPOLC =       0.00000000      0.00000000     -0.00102723
ZVAL =  -1.027233E-02
deltaQ =   3.146113E-06
 Dsol_rc =      -0.01647465     -0.00948089     -0.10045810
 Dele =       0.00000000      0.00000000      0.08336225
alpha =   3.000000E-01
DIPOLC =       0.00000000      0.00000000     -0.00102723
ZVAL =  -1.027233E-02
deltaQ =   3.146113E-06
 Dsol_rc =      -0.01647465     -0.00948089     -0.10045810
 Dele =       0.00000000      0.00000000      0.08336225
alpha =   3.000000E-01
DIPOLC =       0.00000000      0.00000000     -0.00102723
ZVAL =  -1.027233E-02
deltaQ =   3.146113E-06
 Dsol_rc =      -0.01647465     -0.00948089     -0.10045810
 Dele =       0.00000000      0.00000000      0.08336225
alpha =   3.000000E-01
DIPOLC =       0.00000000      0.00000000     -0.00102723
ZVAL =  -1.027233E-02
deltaQ =   3.146113E-06
 Dsol_rc =      -0.01647465     -0.00948089     -0.10045810
 Dele =       0.00000000      0.00000000      0.08336225
alpha =   3.000000E-01
DIPOLC =       0.00000000      0.00000000     -0.00102723
ZVAL =  -1.027233E-02
deltaQ =   3.146113E-06
 Dsol_rc =      -0.01647465     -0.00948089     -0.10045810
 Dele =       0.00000000      0.00000000      0.08336225
alpha =   3.000000E-01
DIPOLC =       0.00000000      0.00000000     -0.00102723
ZVAL =  -1.027233E-02
deltaQ =   3.146113E-06
deltaQ =   3.146113E-06
 Dsol_rc =      -0.01647465     -0.00948089     -0.10045810
 Dele =       0.00000000      0.00000000      0.08336225
alpha =   3.000000E-01
DIPOLC =       0.00000000      0.00000000     -0.00102723
ZVAL =  -1.027233E-02
deltaQ =   3.146113E-06
 Dsol_rc =      -0.01647465     -0.00948089     -0.10045810
 Dele =       0.00000000      0.00000000      0.08336225
alpha =   3.000000E-01
DIPOLC =       0.00000000      0.00000000     -0.00102723
ZVAL =  -1.027233E-02
deltaQ =   3.146113E-06
 Dsol_rc =      -0.01647465     -0.00948089     -0.10045810
 Dele =       0.00000000      0.00000000      0.08336225
alpha =   3.000000E-01
DIPOLC =       0.00000000      0.00000000     -0.00102723
ZVAL =  -1.027233E-02
deltaQ =   3.146113E-06
 Dsol_rc =      -0.01647465     -0.00948089     -0.10045810
 Dele =       0.00000000      0.00000000      0.08336225
alpha =   3.000000E-01
DIPOLC =       0.00000000      0.00000000     -0.00102723
ZVAL =  -1.027233E-02
deltaQ =   3.146113E-06
 Dsol_rc =      -0.01647465     -0.00948089     -0.10045810
 Dele =       0.00000000      0.00000000      0.08336225
alpha =   3.000000E-01
DIPOLC =       0.00000000      0.00000000     -0.00102723
ZVAL =  -1.027233E-02
deltaQ =   3.146113E-06
 Dsol_rc =      -0.01647465     -0.00948089     -0.10045810
 Dele =       0.00000000      0.00000000      0.08336225
alpha =   3.000000E-01
DIPOLC =       0.00000000      0.00000000     -0.00102723
ZVAL =  -1.027233E-02
deltaQ =   3.146113E-06
 Dsol_rc =      -0.01647465     -0.00948089     -0.10045810
 Dele =       0.00000000      0.00000000      0.08336225
alpha =   3.000000E-01
DIPOLC =       0.00000000      0.00000000     -0.00102723
ZVAL =  -1.027233E-02
deltaQ =   3.146113E-06
 Dsol_rc =      -0.01647465     -0.00948089     -0.10045810
 Dele =       0.00000000      0.00000000      0.08336225
alpha =   3.000000E-01
DIPOLC =       0.00000000      0.00000000     -0.00102723
ZVAL =  -1.027233E-02
deltaQ =   3.146113E-06
 Dsol_rc =      -0.01647465     -0.00948089     -0.10045810
 Dele =       0.00000000      0.00000000      0.08336225
alpha =   3.000000E-01
DIPOLC =       0.00000000      0.00000000     -0.00102723
ZVAL =  -1.027233E-02
 Dsol_rc =      -0.01647465     -0.00948089     -0.10045810
 Dele =       0.00000000      0.00000000      0.08336225
alpha =   3.000000E-01
DIPOLC =       0.00000000      0.00000000     -0.00102723
ZVAL =  -1.027233E-02
 Begin Solvation calculations
  rms_SCF =   1.103682094826673E-004 tol =   1.103682094826673E-005
 Begin minimization
 Creating dielectric and ionic cavities
  area:      239.952718159582     
  volume:    3289.64761202870     
  A_cav:    0.210918439262273     
  qion_max:     4.88286673487309     
  Solving nonlinear dielectric/ionic screening model
  Starting outer loop
        iter                  A_solv                     rms
 resid(G=0) =   7.827235391402732E-006
  NLPB:    0   0.260358161212497E+00   0.978220356153657E-02
   LPB:        0.260358161212497E+00   0.978220043005278E-02
   LPB:    0   0.260358161212867E+00   0.979038723556424E-02   0.944512E-07   0.000000E+00   0.828707E+02   0.782724E-05
   LPB:    1   0.260369898854757E+00   0.593304931418676E-01   0.863588E-01   0.000000E+00   0.279252E+02   0.545046E-21
   LPB:    2   0.260396983884921E+00   0.380037111037331E-01   0.199864E-01   0.997059E+01   0.117712E+02   0.132969E-15
   LPB:    3   0.260471906797799E+00   0.197609766273510E-01   0.429613E-01   0.128689E+01   0.266584E+01  -0.263216E-15
   LPB:    4   0.260476580546772E+00   0.147548550584813E-01   0.102661E-01   0.261049E+00   0.749730E+02  -0.215050E-14
   LPB:    5   0.260477654226983E+00   0.799330953957027E-02   0.634404E-02   0.371749E+00   0.176333E+03  -0.207451E-14
   LPB:    6   0.260478549550333E+00   0.117476068865985E-02   0.126783E-01   0.417264E+00   0.151423E+03  -0.205811E-14
   LPB:    7   0.260478926536085E+00   0.648938760943806E-03   0.245031E-01   0.217864E+00   0.504175E+03  -0.212138E-14
    LS:    0   0.260478923241694E+00   0.120762029197252E-03   0.241530647174849E-03
 resid(G=0) =  -3.802674217179280E-008
  NLPB:    1   0.260478923241694E+00   0.651581700580043E-03
   LPB:        0.260478923241694E+00   0.651581699470410E-03
   LPB:    0   0.260478923241694E+00   0.651601833635710E-03  -0.458871E-09   0.000000E+00   0.828703E+02  -0.380267E-07
   LPB:    1   0.260479028297964E+00   0.803958343222445E-03   0.201725E-01   0.000000E+00   0.980823E+03  -0.189558E-23
   LPB:    2   0.260479092113526E+00   0.137236832722024E-02   0.231916E-01   0.528363E+00   0.376305E+03  -0.385451E-18
   LPB:    3   0.260479137354442E+00   0.181766402944941E-02   0.148342E-01   0.110833E+01   0.470132E+03   0.361891E-17
   LPB:    4   0.260479158524450E+00   0.130652368388812E-02   0.795382E-02   0.872729E+00   0.297444E+03   0.211098E-17
   LPB:    5   0.260479186570354E+00   0.363833985402510E-03   0.156294E-01   0.674191E+00   0.242985E+03   0.998553E-18
   LPB:    6   0.260479196198127E+00   0.426108342646296E-03   0.192077E-01   0.279334E+00   0.151753E+03   0.142529E-17
   LPB:    7   0.260479204484925E+00   0.606713713029531E-03   0.248460E-01   0.665395E+00   0.176354E+03   0.523269E-17
   LPB:    8   0.260479209690576E+00   0.550217536311929E-03   0.151513E-01   0.103013E+01   0.439284E+03  -0.961779E-17
   LPB:    9   0.260479214168592E+00   0.207169104289731E-03   0.139694E-01   0.933005E+00   0.252249E+03  -0.134733E-16
   LPB:   10   0.260479217077907E+00   0.178807495922641E-03   0.229498E-01   0.395461E+00   0.770733E+03  -0.204967E-16
   LPB:   11   0.260479219147425E+00   0.126533490439895E-03   0.327234E-01   0.498882E+00   0.184138E+03  -0.211518E-16
   LPB:   12   0.260479220309554E+00   0.149947319085701E-03   0.195886E-01   0.938080E+00   0.325836E+03  -0.233080E-16
   LPB:   13   0.260479221499422E+00   0.661109912144844E-04   0.215914E-01   0.928895E+00   0.619223E+03  -0.242900E-16
   LPB:   14   0.260479222069763E+00   0.891460015485405E-04   0.240853E-01   0.429701E+00   0.339761E+03  -0.250292E-16
   LPB:   15   0.260479222458523E+00   0.218206869604291E-03   0.217931E-01   0.753320E+00   0.233178E+03  -0.257683E-16
   LPB:   16   0.260479222679352E+00   0.927888800380325E-04   0.717523E-02   0.172528E+01   0.189810E+03  -0.280695E-16
   LPB:   17   0.260479223017677E+00   0.394453020929315E-04   0.233337E-01   0.471118E+00   0.137087E+03  -0.293910E-16
    LS:    0   0.260479223524165E+00   0.300282470611091E-06   0.599551966029411E-06
 resid(G=0) =  -1.328757062712960E-009
  NLPB:    2   0.260479223524165E+00   0.401566919969111E-04
   LPB:        0.260479223524165E+00   0.401566919749272E-04
   LPB:    0   0.260479223524165E+00   0.401582482154142E-04  -0.160342E-10   0.000000E+00   0.828703E+02  -0.132876E-08
   LPB:    1   0.260479223661492E+00   0.420316833493282E-04   0.185562E-01   0.000000E+00   0.266647E+03  -0.111841E-24
   LPB:    2   0.260479223727631E+00   0.112820567026998E-03   0.170573E-01   0.523946E+00   0.386819E+03  -0.104833E-18
   LPB:    3   0.260479223800946E+00   0.499195708586402E-04   0.947387E-02   0.199579E+01   0.313251E+03  -0.158859E-18
   LPB:    4   0.260479223895093E+00   0.240449406475904E-04   0.237999E-01   0.511169E+00   0.865410E+02  -0.339401E-18
   LPB:    5   0.260479223990677E+00   0.481450545143132E-04   0.326164E-01   0.740832E+00   0.124562E+03  -0.133244E-17
   LPB:    6   0.260479224039015E+00   0.449504534044342E-04   0.171861E-01   0.959759E+00   0.169630E+03  -0.299328E-17
   LPB:    7   0.260479224085192E+00   0.380740216066707E-04   0.169778E-01   0.967008E+00   0.154806E+03  -0.378225E-17
   LPB:    8   0.260479224122796E+00   0.420868432820875E-04   0.159654E-01   0.865990E+00   0.917554E+02  -0.478355E-17
   LPB:    9   0.260479224161996E+00   0.190288617506810E-04   0.213009E-01   0.781330E+00   0.483962E+02  -0.557354E-17
   LPB:   10   0.260479224194459E+00   0.149920601652019E-04   0.245467E-01   0.718636E+00   0.689256E+02  -0.682730E-17
   LPB:   11   0.260479224218324E+00   0.125940825807233E-04   0.273678E-01   0.659349E+00   0.107338E+03  -0.778904E-17
   LPB:   12   0.260479224233893E+00   0.100345498125761E-04   0.279258E-01   0.639366E+00   0.524584E+02  -0.834426E-17
   LPB:   13   0.260479224244631E+00   0.109406010501899E-04   0.267172E-01   0.720919E+00   0.917260E+02  -0.903406E-17
   LPB:   14   0.260479224250270E+00   0.101605971775242E-04   0.182678E-01   0.767954E+00   0.772233E+02  -0.941640E-17
   LPB:   15   0.260479224254904E+00   0.182587086006196E-04   0.199831E-01   0.751261E+00   0.858457E+02  -0.975985E-17
   LPB:   16   0.260479224257175E+00   0.136543395651261E-04   0.809317E-02   0.121014E+01   0.142006E+03  -0.100466E-16
   LPB:   17   0.260479224260018E+00   0.674769053225308E-05   0.146100E-01   0.693419E+00   0.121745E+03  -0.101892E-16
   LPB:   18   0.260479224262799E+00   0.507835514559495E-05   0.242832E-01   0.588556E+00   0.565013E+02  -0.103674E-16
   LPB:   19   0.260479224264460E+00   0.269375523256270E-05   0.214071E-01   0.677785E+00   0.130111E+03  -0.105670E-16
    LS:    0   0.260479224264489E+00   0.740323524706099E-09   0.148059090408332E-08
 resid(G=0) =  -2.789768416278093E-012
  NLPB:    3   0.260479224264489E+00   0.269302193755341E-05
  Finished solving NLPB equations
 End minimization
 Ecorr=   2077.71334799919     
 A_corr=  0.471397663526762     
 Ecorr_band=  -2077.24195033566     
 End Solvation calculations
RMM:  14    -0.194844321050E+03    0.16512E-01   -0.67131E-04 10321   0.247E-02    0.954E-01
deltaQ =   3.145168E-06
 Dsol_rc =      -0.01651296     -0.00948500     -0.12581802
 Dele =       0.00000000      0.00000000      0.01574955
alpha =   6.000000E-01
DIPOLC =       0.00000000      0.00000000     -0.06645197
ZVAL =  -6.645197E-01
deltaQ =   3.145168E-06
 Dsol_rc =      -0.01651296     -0.00948500     -0.12581802
 Dele =       0.00000000      0.00000000      0.01574955
alpha =   6.000000E-01
DIPOLC =       0.00000000      0.00000000     -0.06645197
ZVAL =  -6.645197E-01
deltaQ =   3.145168E-06
 Dsol_rc =      -0.01651296     -0.00948500     -0.12581802
 Dele =       0.00000000      0.00000000      0.01574955
alpha =   6.000000E-01
DIPOLC =       0.00000000      0.00000000     -0.06645197
ZVAL =  -6.645197E-01
deltaQ =   3.145168E-06
 Dsol_rc =      -0.01651296     -0.00948500     -0.12581802
 Dele =       0.00000000      0.00000000      0.01574955
alpha =   6.000000E-01
DIPOLC =       0.00000000      0.00000000     -0.06645197
ZVAL =  -6.645197E-01
deltaQ =   3.145168E-06
deltaQ =   3.145168E-06
 Dsol_rc =      -0.01651296     -0.00948500     -0.12581802
 Dele =       0.00000000      0.00000000      0.01574955
alpha =   6.000000E-01
DIPOLC =       0.00000000      0.00000000     -0.06645197
ZVAL =  -6.645197E-01
deltaQ =   3.145168E-06
 Dsol_rc =      -0.01651296     -0.00948500     -0.12581802
 Dele =       0.00000000      0.00000000      0.01574955
alpha =   6.000000E-01
DIPOLC =       0.00000000      0.00000000     -0.06645197
ZVAL =  -6.645197E-01
deltaQ =   3.145168E-06
 Dsol_rc =      -0.01651296     -0.00948500     -0.12581802
 Dele =       0.00000000      0.00000000      0.01574955
alpha =   6.000000E-01
DIPOLC =       0.00000000      0.00000000     -0.06645197
ZVAL =  -6.645197E-01
deltaQ =   3.145168E-06
 Dsol_rc =      -0.01651296     -0.00948500     -0.12581802
 Dele =       0.00000000      0.00000000      0.01574955
alpha =   6.000000E-01
DIPOLC =       0.00000000      0.00000000     -0.06645197
ZVAL =  -6.645197E-01
deltaQ =   3.145168E-06
 Dsol_rc =      -0.01651296     -0.00948500     -0.12581802
 Dele =       0.00000000      0.00000000      0.01574955
alpha =   6.000000E-01
DIPOLC =       0.00000000      0.00000000     -0.06645197
ZVAL =  -6.645197E-01
deltaQ =   3.145168E-06
 Dsol_rc =      -0.01651296     -0.00948500     -0.12581802
 Dele =       0.00000000      0.00000000      0.01574955
alpha =   6.000000E-01
DIPOLC =       0.00000000      0.00000000     -0.06645197
ZVAL =  -6.645197E-01
deltaQ =   3.145168E-06
 Dsol_rc =      -0.01651296     -0.00948500     -0.12581802
 Dele =       0.00000000      0.00000000      0.01574955
alpha =   6.000000E-01
DIPOLC =       0.00000000      0.00000000     -0.06645197
ZVAL =  -6.645197E-01
deltaQ =   3.145168E-06
 Dsol_rc =      -0.01651296     -0.00948500     -0.12581802
 Dele =       0.00000000      0.00000000      0.01574955
alpha =   6.000000E-01
DIPOLC =       0.00000000      0.00000000     -0.06645197
ZVAL =  -6.645197E-01
deltaQ =   3.145168E-06
 Dsol_rc =      -0.01651296     -0.00948500     -0.12581802
 Dele =       0.00000000      0.00000000      0.01574955
alpha =   6.000000E-01
DIPOLC =       0.00000000      0.00000000     -0.06645197
ZVAL =  -6.645197E-01
deltaQ =   3.145168E-06
 Dsol_rc =      -0.01651296     -0.00948500     -0.12581802
 Dele =       0.00000000      0.00000000      0.01574955
alpha =   6.000000E-01
DIPOLC =       0.00000000      0.00000000     -0.06645197
ZVAL =  -6.645197E-01
deltaQ =   3.145168E-06
 Dsol_rc =      -0.01651296     -0.00948500     -0.12581802
 Dele =       0.00000000      0.00000000      0.01574955
alpha =   6.000000E-01
DIPOLC =       0.00000000      0.00000000     -0.06645197
ZVAL =  -6.645197E-01
 Dsol_rc =      -0.01651296     -0.00948500     -0.12581802
 Dele =       0.00000000      0.00000000      0.01574955
alpha =   6.000000E-01
DIPOLC =       0.00000000      0.00000000     -0.06645197
ZVAL =  -6.645197E-01
 Begin Solvation calculations
  rms_SCF =   1.103682094826673E-004 tol =   1.103682094826673E-005
 Begin minimization
 Creating dielectric and ionic cavities
  area:      239.952972314104     
  volume:    3289.62889377420     
  A_cav:    0.210918662664097     
  qion_max:     4.88291979685277     
  Solving nonlinear dielectric/ionic screening model
  Starting outer loop
        iter                  A_solv                     rms
 resid(G=0) =   2.792917910873771E-006
  NLPB:    0   0.254479418185884E+00   0.362332189271172E-01
   LPB:        0.254479418185884E+00   0.362332188194758E-01
   LPB:    0   0.254479418185931E+00   0.362357986979686E-01   0.337019E-07   0.000000E+00   0.828712E+02   0.279292E-05
   LPB:    1   0.256840781633434E+00   0.746119403598659E+00   0.390964E+00   0.000000E+00   0.196497E+02  -0.219398E-21
   LPB:    2   0.259135858874074E+00   0.238739723142724E+00   0.112181E-01   0.338729E+02   0.346035E+02   0.531167E-14
   LPB:    3   0.260348262200891E+00   0.481767178997757E-01   0.174091E-01   0.340403E+00   0.860215E+02   0.138169E-13
   LPB:    4   0.260404745820766E+00   0.124275851816339E-01   0.115939E-01   0.699555E-01   0.200503E+03   0.221714E-13
   LPB:    5   0.260416382095885E+00   0.161992076722632E-01   0.173813E-01   0.137417E+00   0.771260E+03   0.221740E-13
   LPB:    6   0.260419522677420E+00   0.204478981391739E-01   0.932857E-02   0.502878E+00   0.346561E+03   0.223278E-13
   LPB:    7   0.260422316740344E+00   0.401567896633107E-02   0.922268E-02   0.899878E+00   0.422602E+03   0.223815E-13
   LPB:    8   0.260424161497187E+00   0.241180746148906E-02   0.270571E-01   0.225050E+00   0.377276E+03   0.224140E-13
    LS:    0   0.260424145409729E+00   0.594472722384543E-02   0.118894866226042E-01
 resid(G=0) =  -2.814513954396691E-007
  NLPB:    1   0.260424145409729E+00   0.238430280534500E-02
   LPB:        0.260424145409729E+00   0.238430278873324E-02
   LPB:    0   0.260424145409730E+00   0.238385881954490E-02  -0.339621E-08   0.000000E+00   0.828721E+02  -0.281451E-06
   LPB:    1   0.260424739761743E+00   0.212896495235595E-02   0.209824E-01   0.000000E+00   0.193986E+03   0.150904E-22
   LPB:    2   0.260425163736367E+00   0.529968122503713E-02   0.314693E-01   0.475626E+00   0.309734E+03  -0.553458E-18
   LPB:    3   0.260425337673754E+00   0.392774080892515E-02   0.758695E-02   0.170166E+01   0.314650E+03  -0.421531E-18
   LPB:    4   0.260425594949197E+00   0.166007151318238E-02   0.163286E-01   0.687264E+00   0.455745E+03  -0.855390E-17
   LPB:    5   0.260425781810213E+00   0.151670092103788E-02   0.209968E-01   0.564827E+00   0.413824E+03  -0.318066E-16
   LPB:    6   0.260425888482581E+00   0.977144054529735E-03   0.173685E-01   0.690120E+00   0.355319E+03  -0.389183E-16
   LPB:    7   0.260425931177905E+00   0.831560497883328E-03   0.178828E-01   0.388737E+00   0.255448E+03  -0.581871E-16
   LPB:    8   0.260425972377366E+00   0.795605958692594E-03   0.248543E-01   0.694298E+00   0.130987E+03  -0.684251E-16
   LPB:    9   0.260426014762871E+00   0.126694181555163E-02   0.322038E-01   0.793999E+00   0.355054E+03  -0.682157E-16
   LPB:   10   0.260426027993716E+00   0.918613401046015E-03   0.981718E-02   0.102398E+01   0.208095E+03  -0.116770E-15
   LPB:   11   0.260426047308587E+00   0.152387592632178E-03   0.252121E-01   0.568435E+00   0.475656E+03  -0.134199E-15
    LS:    0   0.260426047983975E+00   0.190257424576012E-05   0.380379771487420E-05
 resid(G=0) =  -4.840364220548565E-009
  NLPB:    2   0.260426047983975E+00   0.153745221651732E-03
   LPB:        0.260426047983975E+00   0.153745221575538E-03
   LPB:    0   0.260426047983975E+00   0.153745324824594E-03  -0.584076E-10   0.000000E+00   0.828722E+02  -0.484036E-08
   LPB:    1   0.260426054777631E+00   0.322948635305441E-03   0.194232E-01   0.000000E+00   0.145712E+04   0.397259E-24
   LPB:    2   0.260426058284821E+00   0.744023180625478E-03   0.199617E-01   0.502318E+00   0.162689E+03  -0.736917E-18
   LPB:    3   0.260426063655655E+00   0.553274810248252E-03   0.154060E-01   0.198421E+01   0.457115E+03   0.259030E-17
   LPB:    4   0.260426065941446E+00   0.488096978897261E-03   0.884935E-02   0.740926E+00   0.302496E+03   0.760607E-17
   LPB:    5   0.260426069568960E+00   0.212585924701136E-03   0.160170E-01   0.876805E+00   0.394518E+03   0.699655E-17
   LPB:    6   0.260426072043979E+00   0.228234267810243E-03   0.213270E-01   0.512413E+00   0.424613E+03   0.468186E-17
   LPB:    7   0.260426074730791E+00   0.148950443758260E-03   0.226003E-01   0.102441E+01   0.300013E+03   0.365893E-17
   LPB:    8   0.260426076673505E+00   0.130811398931111E-03   0.237035E-01   0.689405E+00   0.512381E+03   0.183501E-17
   LPB:    9   0.260426078227381E+00   0.114235143728353E-03   0.237715E-01   0.797558E+00   0.528290E+03  -0.976339E-18
   LPB:   10   0.260426079383852E+00   0.870066232695492E-04   0.236978E-01   0.746565E+00   0.408922E+03  -0.367263E-17
   LPB:   11   0.260426079958034E+00   0.813765797501771E-04   0.225166E-01   0.522540E+00   0.276377E+03  -0.658336E-17
   LPB:   12   0.260426080462504E+00   0.997172656831910E-04   0.235862E-01   0.838746E+00   0.342844E+03  -0.768797E-17
   LPB:   13   0.260426080896894E+00   0.430705183715723E-04   0.194261E-01   0.104548E+01   0.301866E+03  -0.912533E-17
   LPB:   14   0.260426081130957E+00   0.742707339575959E-04   0.253543E-01   0.412846E+00   0.454434E+03  -0.121527E-16
   LPB:   15   0.260426081243937E+00   0.133651117284657E-03   0.129089E-01   0.948047E+00   0.301366E+03  -0.144077E-16
   LPB:   16   0.260426081345215E+00   0.240912675748367E-04   0.849357E-02   0.136243E+01   0.355553E+03  -0.155705E-16
   LPB:   17   0.260426081418847E+00   0.113144123621828E-04   0.248238E-01   0.248758E+00   0.396224E+03  -0.166673E-16
    LS:    0   0.260426081419447E+00   0.334354715580965E-07   0.668697448790037E-07
 resid(G=0) =  -9.144979218334015E-011
  NLPB:    3   0.260426081419447E+00   0.113006033788488E-04
   LPB:        0.260426081419447E+00   0.113006033784788E-04
   LPB:    0   0.260426081419447E+00   0.113005577922691E-04  -0.110350E-11   0.000000E+00   0.828722E+02  -0.914498E-10
   LPB:    1   0.260426081446647E+00   0.123977884934470E-04   0.193151E-01   0.000000E+00   0.102956E+04   0.376232E-26
   LPB:    2   0.260426081476852E+00   0.518410887208516E-04   0.339734E-01   0.631342E+00   0.844949E+03  -0.120929E-18
   LPB:    3   0.260426081493887E+00   0.362451265471789E-04   0.803678E-02   0.238396E+01   0.364607E+03  -0.307237E-18
   LPB:    4   0.260426081522356E+00   0.123312597751025E-04   0.183377E-01   0.732475E+00   0.949847E+03  -0.417852E-18
   LPB:    5   0.260426081549898E+00   0.160364456953580E-04   0.300283E-01   0.590769E+00   0.704977E+03  -0.631795E-18
   LPB:    6   0.260426081567819E+00   0.163563060630223E-04   0.216333E-01   0.903226E+00   0.385488E+03  -0.991849E-18
   LPB:    7   0.260426081580918E+00   0.126943365726240E-04   0.192580E-01   0.821085E+00   0.560129E+03  -0.158896E-17
   LPB:    8   0.260426081593957E+00   0.158019746912215E-04   0.259637E-01   0.738265E+00   0.371820E+03  -0.204525E-17
   LPB:    9   0.260426081600338E+00   0.208578410348008E-04   0.168364E-01   0.754817E+00   0.231040E+03  -0.280474E-17
   LPB:   10   0.260426081605272E+00   0.103632093991796E-04   0.135108E-01   0.963404E+00   0.389301E+03  -0.333815E-17
   LPB:   11   0.260426081609761E+00   0.594196926877519E-05   0.199903E-01   0.614891E+00   0.662758E+03  -0.375399E-17
   LPB:   12   0.260426081613299E+00   0.600069797644029E-05   0.243369E-01   0.647393E+00   0.704513E+03  -0.419388E-17
   LPB:   13   0.260426081615487E+00   0.798397205428789E-05   0.216638E-01   0.694754E+00   0.403840E+03  -0.461178E-17
   LPB:   14   0.260426081616706E+00   0.118709078405979E-04   0.124420E-01   0.970662E+00   0.334203E+03  -0.487062E-17
   LPB:   15   0.260426081617598E+00   0.578507791563727E-05   0.866077E-02   0.105022E+01   0.348350E+03  -0.503513E-17
   LPB:   16   0.260426081618736E+00   0.266955961406138E-05   0.198699E-01   0.556202E+00   0.565481E+03  -0.519026E-17
   LPB:   17   0.260426081619464E+00   0.314569347069194E-05   0.256633E-01   0.495286E+00   0.301377E+03  -0.540841E-17
   LPB:   18   0.260426081620292E+00   0.229917441643288E-05   0.306956E-01   0.951663E+00   0.260988E+03  -0.553488E-17
   LPB:   19   0.260426081621080E+00   0.100106092940740E-05   0.286517E-01   0.101925E+01   0.389841E+03  -0.573735E-17
    LS:    0   0.260426081621086E+00   0.201639871466597E-09   0.403267659415674E-09
 resid(G=0) =  -6.600692215030790E-013
  NLPB:    4   0.260426081621086E+00   0.100110594663661E-05
  Finished solving NLPB equations
 End minimization
 Ecorr=   2082.40725842011     
 A_corr=  0.471344744285184     
 Ecorr_band=  -2081.93591367582     
 End Solvation calculations
RMM:  15    -0.194815608811E+03    0.28712E-01   -0.23217E-03 11800   0.416E-02    0.756E-01
deltaQ =   3.147359E-06
 Dsol_rc =      -0.01661581     -0.00950527     -0.06198004
 Dele =       0.00000000      0.00000000     -0.01674211
alpha =   6.000000E-01
DIPOLC =       0.00000000      0.00000000     -0.07381408
ZVAL =  -7.381408E-01
deltaQ =   3.147359E-06
deltaQ =   3.147359E-06
 Dsol_rc =      -0.01661581     -0.00950527     -0.06198004
 Dele =       0.00000000      0.00000000     -0.01674211
alpha =   6.000000E-01
DIPOLC =       0.00000000      0.00000000     -0.07381408
ZVAL =  -7.381408E-01
deltaQ =   3.147359E-06
 Dsol_rc =      -0.01661581     -0.00950527     -0.06198004
 Dele =       0.00000000      0.00000000     -0.01674211
alpha =   6.000000E-01
DIPOLC =       0.00000000      0.00000000     -0.07381408
ZVAL =  -7.381408E-01
deltaQ =   3.147359E-06
 Dsol_rc =      -0.01661581     -0.00950527     -0.06198004
 Dele =       0.00000000      0.00000000     -0.01674211
alpha =   6.000000E-01
DIPOLC =       0.00000000      0.00000000     -0.07381408
ZVAL =  -7.381408E-01
deltaQ =   3.147359E-06
 Dsol_rc =      -0.01661581     -0.00950527     -0.06198004
 Dele =       0.00000000      0.00000000     -0.01674211
alpha =   6.000000E-01
DIPOLC =       0.00000000      0.00000000     -0.07381408
ZVAL =  -7.381408E-01
deltaQ =   3.147359E-06
 Dsol_rc =      -0.01661581     -0.00950527     -0.06198004
 Dele =       0.00000000      0.00000000     -0.01674211
alpha =   6.000000E-01
DIPOLC =       0.00000000      0.00000000     -0.07381408
ZVAL =  -7.381408E-01
deltaQ =   3.147359E-06
 Dsol_rc =      -0.01661581     -0.00950527     -0.06198004
 Dele =       0.00000000      0.00000000     -0.01674211
alpha =   6.000000E-01
DIPOLC =       0.00000000      0.00000000     -0.07381408
ZVAL =  -7.381408E-01
deltaQ =   3.147359E-06
 Dsol_rc =      -0.01661581     -0.00950527     -0.06198004
 Dele =       0.00000000      0.00000000     -0.01674211
alpha =   6.000000E-01
DIPOLC =       0.00000000      0.00000000     -0.07381408
ZVAL =  -7.381408E-01
deltaQ =   3.147359E-06
 Dsol_rc =      -0.01661581     -0.00950527     -0.06198004
 Dele =       0.00000000      0.00000000     -0.01674211
alpha =   6.000000E-01
DIPOLC =       0.00000000      0.00000000     -0.07381408
ZVAL =  -7.381408E-01
deltaQ =   3.147359E-06
 Dsol_rc =      -0.01661581     -0.00950527     -0.06198004
 Dele =       0.00000000      0.00000000     -0.01674211
alpha =   6.000000E-01
DIPOLC =       0.00000000      0.00000000     -0.07381408
ZVAL =  -7.381408E-01
deltaQ =   3.147359E-06
 Dsol_rc =      -0.01661581     -0.00950527     -0.06198004
 Dele =       0.00000000      0.00000000     -0.01674211
alpha =   6.000000E-01
DIPOLC =       0.00000000      0.00000000     -0.07381408
ZVAL =  -7.381408E-01
deltaQ =   3.147359E-06
 Dsol_rc =      -0.01661581     -0.00950527     -0.06198004
 Dele =       0.00000000      0.00000000     -0.01674211
alpha =   6.000000E-01
DIPOLC =       0.00000000      0.00000000     -0.07381408
ZVAL =  -7.381408E-01
deltaQ =   3.147359E-06
 Dsol_rc =      -0.01661581     -0.00950527     -0.06198004
 Dele =       0.00000000      0.00000000     -0.01674211
alpha =   6.000000E-01
DIPOLC =       0.00000000      0.00000000     -0.07381408
ZVAL =  -7.381408E-01
deltaQ =   3.147359E-06
 Dsol_rc =      -0.01661581     -0.00950527     -0.06198004
 Dele =       0.00000000      0.00000000     -0.01674211
alpha =   6.000000E-01
DIPOLC =       0.00000000      0.00000000     -0.07381408
ZVAL =  -7.381408E-01
deltaQ =   3.147359E-06
 Dsol_rc =      -0.01661581     -0.00950527     -0.06198004
 Dele =       0.00000000      0.00000000     -0.01674211
alpha =   6.000000E-01
DIPOLC =       0.00000000      0.00000000     -0.07381408
ZVAL =  -7.381408E-01
 Dsol_rc =      -0.01661581     -0.00950527     -0.06198004
 Dele =       0.00000000      0.00000000     -0.01674211
alpha =   6.000000E-01
DIPOLC =       0.00000000      0.00000000     -0.07381408
ZVAL =  -7.381408E-01
 Begin Solvation calculations
  rms_SCF =   1.103682094826673E-004 tol =   1.103682094826673E-005
 Begin minimization
 Creating dielectric and ionic cavities
  area:      239.953016490324     
  volume:    3289.62682425033     
  A_cav:    0.210918701494994     
  qion_max:     4.88292479935722     
  Solving nonlinear dielectric/ionic screening model
  Starting outer loop
        iter                  A_solv                     rms
 resid(G=0) =   2.406681706978997E-007
  NLPB:    0   0.260009322623259E+00   0.824584056214965E-02
   LPB:        0.260009322623259E+00   0.824584055863751E-02
   LPB:    0   0.260009322623259E+00   0.824622997973982E-02   0.290409E-08   0.000000E+00   0.828723E+02   0.240668E-06
   LPB:    1   0.260042673252770E+00   0.677356576569463E-01   0.337931E+00   0.000000E+00   0.511060E+01   0.800811E-23
   LPB:    2   0.260078675142345E+00   0.422233779510536E-01   0.161413E-01   0.226002E+02   0.778480E+01   0.154718E-14
   LPB:    3   0.260100979406467E+00   0.225912768508633E-01   0.116836E-01   0.855897E+00   0.179309E+02   0.401040E-14
   LPB:    4   0.260104901335573E+00   0.784274653620376E-02   0.101479E-01   0.202449E+00   0.531905E+02   0.542050E-14
   LPB:    5   0.260105179525603E+00   0.432389231547147E-02   0.580135E-02   0.124076E+00   0.184280E+03   0.569892E-14
   LPB:    6   0.260105435592666E+00   0.109612104670605E-02   0.126574E-01   0.421886E+00   0.317859E+03   0.572733E-14
   LPB:    7   0.260105549774171E+00   0.510857864522882E-03   0.246545E-01   0.228924E+00   0.853265E+03   0.575668E-14
    LS:    0   0.260105549355094E+00   0.962267318350141E-04   0.192454301823600E-03
 resid(G=0) =  -5.287196042091935E-009
  NLPB:    1   0.260105549355094E+00   0.511431342565490E-03
   LPB:        0.260105549355094E+00   0.511431342538160E-03
   LPB:    0   0.260105549355094E+00   0.511436596987326E-03  -0.637992E-10   0.000000E+00   0.828724E+02  -0.528720E-08
   LPB:    1   0.260105580038119E+00   0.410858361357922E-03   0.180416E-01   0.000000E+00   0.481555E+03  -0.185104E-24
   LPB:    2   0.260105601864890E+00   0.808199672860432E-03   0.274701E-01   0.467202E+00   0.698898E+03   0.580113E-17
   LPB:    3   0.260105613315340E+00   0.108451396238390E-02   0.122882E-01   0.117275E+01   0.374406E+03   0.649207E-17
   LPB:    4   0.260105621567402E+00   0.752988510697752E-03   0.909772E-02   0.973407E+00   0.321244E+03   0.737710E-17
   LPB:    5   0.260105629761611E+00   0.174038924225635E-03   0.137035E-01   0.659244E+00   0.282086E+03   0.898374E-17
   LPB:    6   0.260105633074932E+00   0.340085002101287E-03   0.232585E-01   0.238234E+00   0.251337E+03   0.108017E-16
   LPB:    7   0.260105634923967E+00   0.375519828878606E-03   0.130051E-01   0.998047E+00   0.142664E+03   0.716236E-17
   LPB:    8   0.260105637330575E+00   0.252061055874037E-03   0.207560E-01   0.815510E+00   0.439960E+03   0.668284E-17
   LPB:    9   0.260105638831807E+00   0.133799555952880E-03   0.167730E-01   0.771927E+00   0.150061E+03   0.372226E-17
   LPB:   10   0.260105639878341E+00   0.397684106736759E-04   0.306481E-01   0.381515E+00   0.159314E+03  -0.183288E-17
    LS:    0   0.260105639911915E+00   0.905568208198204E-07   0.181046493446333E-06
 resid(G=0) =  -8.221254788054466E-010
  NLPB:    2   0.260105639911915E+00   0.395415114106765E-04
   LPB:        0.260105639911915E+00   0.395415114021299E-04
   LPB:    0   0.260105639911915E+00   0.395404435002070E-04  -0.992038E-11   0.000000E+00   0.828724E+02  -0.822125E-09
   LPB:    1   0.260105640343490E+00   0.601206198955296E-04   0.240851E-01   0.000000E+00   0.509690E+03   0.603455E-25
   LPB:    2   0.260105640696994E+00   0.764323088843348E-04   0.296344E-01   0.665719E+00   0.296418E+03   0.430351E-18
   LPB:    3   0.260105640992505E+00   0.649855033904140E-04   0.191699E-01   0.129228E+01   0.650815E+03   0.107240E-17
   LPB:    4   0.260105641181621E+00   0.101176706067766E-03   0.186545E-01   0.657644E+00   0.554209E+03   0.137818E-17
   LPB:    5   0.260105641331226E+00   0.797937828482494E-04   0.147360E-01   0.100143E+01   0.303021E+03   0.139037E-17
   LPB:    6   0.260105641495748E+00   0.514925377658222E-04   0.201381E-01   0.804711E+00   0.583863E+03   0.161537E-17
   LPB:    7   0.260105641660744E+00   0.664623806196439E-04   0.219209E-01   0.921316E+00   0.596171E+03   0.180491E-17
   LPB:    8   0.260105641720709E+00   0.967395467268612E-04   0.110239E-01   0.722690E+00   0.230919E+03   0.165893E-17
   LPB:    9   0.260105641782006E+00   0.314108725891353E-04   0.968797E-02   0.116316E+01   0.210695E+03   0.197898E-17
   LPB:   10   0.260105641839636E+00   0.216923299812645E-04   0.255621E-01   0.356324E+00   0.298723E+03   0.240531E-17
   LPB:   11   0.260105641900847E+00   0.233803853979031E-04   0.327499E-01   0.829021E+00   0.241797E+03   0.156924E-17
   LPB:   12   0.260105641931865E+00   0.201486950559735E-04   0.176604E-01   0.939717E+00   0.241742E+03   0.700486E-18
   LPB:   13   0.260105641942989E+00   0.997045165247151E-05   0.144614E-01   0.437968E+00   0.488746E+03   0.223850E-18
   LPB:   14   0.260105641954012E+00   0.881824325233078E-05   0.290648E-01   0.493049E+00   0.335741E+03   0.468214E-20
   LPB:   15   0.260105641962982E+00   0.580351821258667E-05   0.355674E-01   0.664973E+00   0.256262E+03  -0.247880E-18
   LPB:   16   0.260105641968209E+00   0.685052708590882E-05   0.317663E-01   0.652396E+00   0.524871E+03  -0.345128E-18
   LPB:   17   0.260105641973320E+00   0.699555238249756E-05   0.326804E-01   0.950467E+00   0.924051E+02  -0.452658E-18
   LPB:   18   0.260105641976312E+00   0.211708316213276E-04   0.201226E-01   0.950792E+00   0.204160E+03  -0.756685E-18
   LPB:   19   0.260105641978488E+00   0.764082828734424E-05   0.767034E-02   0.190774E+01   0.248266E+03  -0.932154E-18
   LPB:   20   0.260105641980415E+00   0.293769548731472E-05   0.168442E-01   0.403371E+00   0.373791E+03  -0.105467E-17
    LS:    0   0.260105641980606E+00   0.206869066321502E-08   0.413700023887664E-08
 resid(G=0) =  -2.539427002012928E-012
  NLPB:    3   0.260105641980606E+00   0.293434346471899E-05
  Finished solving NLPB equations
 End minimization
 Ecorr=   2080.90601980382     
 A_corr=  0.471024343475600     
 Ecorr_band=  -2080.43499546034     
 End Solvation calculations
RMM:  16    -0.194807260807E+03    0.83480E-02   -0.25776E-04  9715   0.138E-02    0.682E-01
deltaQ =   3.153030E-06
 Dsol_rc =      -0.01655460     -0.00951034     -0.05470797
 Dele =       0.00000000      0.00000000     -0.01901652
alpha =   6.000000E-01
DIPOLC =       0.00000000      0.00000000     -0.07376032
ZVAL =  -7.376032E-01
deltaQ =   3.153030E-06
 Dsol_rc =      -0.01655460     -0.00951034     -0.05470797
 Dele =       0.00000000      0.00000000     -0.01901652
alpha =   6.000000E-01
DIPOLC =       0.00000000      0.00000000     -0.07376032
ZVAL =  -7.376032E-01
deltaQ =   3.153030E-06
 Dsol_rc =      -0.01655460     -0.00951034     -0.05470797
 Dele =       0.00000000      0.00000000     -0.01901652
alpha =   6.000000E-01
DIPOLC =       0.00000000      0.00000000     -0.07376032
ZVAL =  -7.376032E-01
deltaQ =   3.153030E-06
deltaQ =   3.153030E-06
 Dsol_rc =      -0.01655460     -0.00951034     -0.05470797
 Dele =       0.00000000      0.00000000     -0.01901652
alpha =   6.000000E-01
DIPOLC =       0.00000000      0.00000000     -0.07376032
ZVAL =  -7.376032E-01
deltaQ =   3.153030E-06
 Dsol_rc =      -0.01655460     -0.00951034     -0.05470797
 Dele =       0.00000000      0.00000000     -0.01901652
alpha =   6.000000E-01
DIPOLC =       0.00000000      0.00000000     -0.07376032
ZVAL =  -7.376032E-01
deltaQ =   3.153030E-06
 Dsol_rc =      -0.01655460     -0.00951034     -0.05470797
 Dele =       0.00000000      0.00000000     -0.01901652
alpha =   6.000000E-01
DIPOLC =       0.00000000      0.00000000     -0.07376032
ZVAL =  -7.376032E-01
deltaQ =   3.153030E-06
 Dsol_rc =      -0.01655460     -0.00951034     -0.05470797
 Dele =       0.00000000      0.00000000     -0.01901652
alpha =   6.000000E-01
DIPOLC =       0.00000000      0.00000000     -0.07376032
ZVAL =  -7.376032E-01
deltaQ =   3.153030E-06
 Dsol_rc =      -0.01655460     -0.00951034     -0.05470797
 Dele =       0.00000000      0.00000000     -0.01901652
alpha =   6.000000E-01
DIPOLC =       0.00000000      0.00000000     -0.07376032
ZVAL =  -7.376032E-01
deltaQ =   3.153030E-06
 Dsol_rc =      -0.01655460     -0.00951034     -0.05470797
 Dele =       0.00000000      0.00000000     -0.01901652
alpha =   6.000000E-01
DIPOLC =       0.00000000      0.00000000     -0.07376032
ZVAL =  -7.376032E-01
deltaQ =   3.153030E-06
 Dsol_rc =      -0.01655460     -0.00951034     -0.05470797
 Dele =       0.00000000      0.00000000     -0.01901652
alpha =   6.000000E-01
DIPOLC =       0.00000000      0.00000000     -0.07376032
ZVAL =  -7.376032E-01
deltaQ =   3.153030E-06
 Dsol_rc =      -0.01655460     -0.00951034     -0.05470797
 Dele =       0.00000000      0.00000000     -0.01901652
alpha =   6.000000E-01
DIPOLC =       0.00000000      0.00000000     -0.07376032
ZVAL =  -7.376032E-01
deltaQ =   3.153030E-06
 Dsol_rc =      -0.01655460     -0.00951034     -0.05470797
 Dele =       0.00000000      0.00000000     -0.01901652
alpha =   6.000000E-01
DIPOLC =       0.00000000      0.00000000     -0.07376032
ZVAL =  -7.376032E-01
deltaQ =   3.153030E-06
 Dsol_rc =      -0.01655460     -0.00951034     -0.05470797
 Dele =       0.00000000      0.00000000     -0.01901652
alpha =   6.000000E-01
DIPOLC =       0.00000000      0.00000000     -0.07376032
ZVAL =  -7.376032E-01
deltaQ =   3.153030E-06
 Dsol_rc =      -0.01655460     -0.00951034     -0.05470797
 Dele =       0.00000000      0.00000000     -0.01901652
alpha =   6.000000E-01
DIPOLC =       0.00000000      0.00000000     -0.07376032
ZVAL =  -7.376032E-01
deltaQ =   3.153030E-06
 Dsol_rc =      -0.01655460     -0.00951034     -0.05470797
 Dele =       0.00000000      0.00000000     -0.01901652
alpha =   6.000000E-01
DIPOLC =       0.00000000      0.00000000     -0.07376032
ZVAL =  -7.376032E-01
 Dsol_rc =      -0.01655460     -0.00951034     -0.05470797
 Dele =       0.00000000      0.00000000     -0.01901652
alpha =   6.000000E-01
DIPOLC =       0.00000000      0.00000000     -0.07376032
ZVAL =  -7.376032E-01
 Begin Solvation calculations
  rms_SCF =   1.103682094826673E-004 tol =   1.103682094826673E-005
 Begin minimization
 Creating dielectric and ionic cavities
  area:      239.953191920535     
  volume:    3289.60208652419     
  A_cav:    0.210918855698150     
  qion_max:     4.88299454433589     
  Solving nonlinear dielectric/ionic screening model
  Starting outer loop
        iter                  A_solv                     rms
 resid(G=0) =   3.393942201362909E-006
  NLPB:    0   0.259554912600968E+00   0.566997686202206E-02
   LPB:        0.259554912600968E+00   0.566997584624678E-02
   LPB:    0   0.259554912601038E+00   0.567275591770174E-02   0.409532E-07   0.000000E+00   0.828736E+02   0.339394E-05
   LPB:    1   0.259555268234496E+00   0.863995594388783E-02   0.239518E-01   0.000000E+00   0.347526E+02  -0.948672E-22
   LPB:    2   0.259556026358951E+00   0.772479092670967E-02   0.211176E-01   0.241785E+01   0.137032E+02   0.169075E-16
   LPB:    3   0.259561200523035E+00   0.582293368349622E-02   0.100425E+00   0.143517E+01   0.107129E+01   0.335430E-16
   LPB:    4   0.259563145267824E+00   0.954204299997434E-02   0.155229E-01   0.243160E+01   0.292375E+01  -0.185911E-15
   LPB:    5   0.259563448986352E+00   0.288550311187306E-02   0.517179E-02   0.468750E+00   0.176427E+02  -0.226642E-15
   LPB:    6   0.259563750946201E+00   0.119660315587131E-02   0.193648E-01   0.265524E+00   0.179997E+02  -0.231903E-15
   LPB:    7   0.259563843243616E+00   0.104043431464197E-02   0.167369E-01   0.353655E+00   0.827373E+02  -0.238408E-15
   LPB:    8   0.259563898586842E+00   0.599205288686128E-03   0.221012E-01   0.454081E+00   0.403872E+02  -0.230337E-15
   LPB:    9   0.259563922599847E+00   0.626868474839720E-03   0.234560E-01   0.408832E+00   0.260517E+03  -0.230754E-15
   LPB:   10   0.259563934324556E+00   0.403339642034073E-03   0.146847E-01   0.779910E+00   0.310474E+03  -0.217886E-15
    LS:    0   0.259563934124904E+00   0.902152393522648E-05   0.180434471752179E-04
 resid(G=0) =  -1.597892940186085E-008
  NLPB:    1   0.259563934124904E+00   0.402809338769501E-03
   LPB:        0.259563934124904E+00   0.402809338452569E-03
   LPB:    0   0.259563934124904E+00   0.402788306184951E-03  -0.192811E-09   0.000000E+00   0.828734E+02  -0.159789E-07
   LPB:    1   0.259563939545515E+00   0.335780875337430E-03   0.138865E-01   0.000000E+00   0.183523E+03  -0.210023E-24
   LPB:    2   0.259563944256490E+00   0.265692792060999E-03   0.209798E-01   0.575245E+00   0.581017E+03  -0.495779E-17
   LPB:    3   0.259563949145642E+00   0.239334330922790E-03   0.292071E-01   0.745479E+00   0.148855E+03  -0.517453E-17
   LPB:    4   0.259563952357354E+00   0.187301950763217E-03   0.250215E-01   0.766793E+00   0.259086E+03  -0.953969E-20
   LPB:    5   0.259563954693646E+00   0.282754601153623E-03   0.209129E-01   0.870343E+00   0.474995E+03  -0.657082E-18
   LPB:    6   0.259563955493295E+00   0.333293996491644E-03   0.907574E-02   0.788686E+00   0.279158E+03   0.626608E-18
   LPB:    7   0.259563956792970E+00   0.655309594911833E-04   0.141971E-01   0.103900E+01   0.338550E+03   0.104159E-17
   LPB:    8   0.259563957452537E+00   0.582296853807283E-04   0.223235E-01   0.322747E+00   0.345020E+03   0.138766E-17
   LPB:    9   0.259563957809632E+00   0.123570537212201E-03   0.321541E-01   0.375880E+00   0.108053E+03   0.190157E-17
   LPB:   10   0.259563958072482E+00   0.870103974654159E-04   0.165666E-01   0.142866E+01   0.214049E+03   0.100212E-17
   LPB:   11   0.259563958340186E+00   0.105580146649253E-03   0.181069E-01   0.931826E+00   0.404721E+03   0.486179E-18
   LPB:   12   0.259563958491532E+00   0.666776156373708E-04   0.125441E-01   0.816053E+00   0.202622E+03   0.340258E-18
   LPB:   13   0.259563958648533E+00   0.203722495887983E-04   0.258622E-01   0.503162E+00   0.133838E+03   0.339135E-18
    LS:    0   0.259563958656347E+00   0.245314435987076E-07   0.490472592270048E-07
 resid(G=0) =  -2.857087205709874E-010
  NLPB:    2   0.259563958656347E+00   0.203279077319007E-04
   LPB:        0.259563958656347E+00   0.203279077298928E-04
   LPB:    0   0.259563958656347E+00   0.203275855994670E-04  -0.344753E-11   0.000000E+00   0.828734E+02  -0.285709E-09
   LPB:    1   0.259563958717271E+00   0.239080843123385E-04   0.181258E-01   0.000000E+00   0.711329E+03  -0.399192E-26
   LPB:    2   0.259563958757232E+00   0.515462508854616E-04   0.251360E-01   0.472993E+00   0.156369E+03   0.258938E-18
   LPB:    3   0.259563958792480E+00   0.306406544073866E-04   0.148646E-01   0.149159E+01   0.177256E+03   0.218391E-18
   LPB:    4   0.259563958821951E+00   0.390921506116734E-04   0.175200E-01   0.709352E+00   0.213397E+03   0.192048E-18
   LPB:    5   0.259563958849643E+00   0.450481884220946E-04   0.152517E-01   0.107941E+01   0.114915E+03   0.201511E-18
   LPB:    6   0.259563958864181E+00   0.405049682719414E-04   0.863098E-02   0.927668E+00   0.952086E+02   0.274107E-18
   LPB:    7   0.259563958891213E+00   0.151762265128152E-04   0.194200E-01   0.826422E+00   0.362398E+02   0.185460E-18
   LPB:    8   0.259563958914570E+00   0.104799608309783E-04   0.276059E-01   0.607841E+00   0.478964E+02   0.513374E-19
   LPB:    9   0.259563958929344E+00   0.932962156071607E-05   0.258788E-01   0.674699E+00   0.551435E+02  -0.617606E-19
   LPB:   10   0.259563958941184E+00   0.128342482421228E-04   0.305406E-01   0.679144E+00   0.430841E+02  -0.133383E-18
   LPB:   11   0.259563958949523E+00   0.111597753895565E-04   0.247330E-01   0.869623E+00   0.198296E+02  -0.230003E-18
   LPB:   12   0.259563958954909E+00   0.753982659469795E-05   0.209792E-01   0.761438E+00   0.586148E+02  -0.590220E-18
   LPB:   13   0.259563958958602E+00   0.972866489253990E-05   0.227389E-01   0.632630E+00   0.554993E+02  -0.680878E-18
   LPB:   14   0.259563958962049E+00   0.646520895111872E-05   0.214745E-01   0.988293E+00   0.257753E+02  -0.732231E-18
   LPB:   15   0.259563958964296E+00   0.684750625429532E-05   0.201499E-01   0.694722E+00   0.361245E+02  -0.861149E-18
   LPB:   16   0.259563958964985E+00   0.112568868367943E-04   0.112495E-01   0.549147E+00   0.667741E+02  -0.950666E-18
   LPB:   17   0.259563958966073E+00   0.349379381576179E-05   0.124088E-01   0.143293E+01   0.398850E+02  -0.991384E-18
   LPB:   18   0.259563958967251E+00   0.278571380184450E-05   0.331279E-01   0.405134E+00   0.310244E+02  -0.106491E-17
   LPB:   19   0.259563958967777E+00   0.159041744384020E-05   0.183374E-01   0.807099E+00   0.378658E+02  -0.112770E-17
    LS:    0   0.259563958967804E+00   0.311456305190916E-09   0.622859606023656E-09
 resid(G=0) =  -1.481759159815965E-012
  NLPB:    3   0.259563958967804E+00   0.159041317728516E-05
  Finished solving NLPB equations
 End minimization
 Ecorr=   2075.75727326925     
 A_corr=  0.470482814665954     
 Ecorr_band=  -2075.28679045458     
 End Solvation calculations
RMM:  17    -0.194802763846E+03    0.44970E-02   -0.94070E-05  8493   0.867E-03    0.642E-01
deltaQ =   3.154817E-06
 Dsol_rc =      -0.01649173     -0.00951103     -0.07088052
 Dele =       0.00000000      0.00000000     -0.05601772
alpha =   3.000000E-01
DIPOLC =       0.00000000      0.00000000     -0.08970170
ZVAL =  -8.970170E-01
deltaQ =   3.154817E-06
 Dsol_rc =      -0.01649173     -0.00951103     -0.07088052
 Dele =       0.00000000      0.00000000     -0.05601772
alpha =   3.000000E-01
DIPOLC =       0.00000000      0.00000000     -0.08970170
ZVAL =  -8.970170E-01
deltaQ =   3.154817E-06
 Dsol_rc =      -0.01649173     -0.00951103     -0.07088052
 Dele =       0.00000000      0.00000000     -0.05601772
alpha =   3.000000E-01
DIPOLC =       0.00000000      0.00000000     -0.08970170
ZVAL =  -8.970170E-01
deltaQ =   3.154817E-06
 Dsol_rc =      -0.01649173     -0.00951103     -0.07088052
 Dele =       0.00000000      0.00000000     -0.05601772
alpha =   3.000000E-01
DIPOLC =       0.00000000      0.00000000     -0.08970170
ZVAL =  -8.970170E-01
deltaQ =   3.154817E-06
deltaQ =   3.154817E-06
 Dsol_rc =      -0.01649173     -0.00951103     -0.07088052
 Dele =       0.00000000      0.00000000     -0.05601772
alpha =   3.000000E-01
DIPOLC =       0.00000000      0.00000000     -0.08970170
ZVAL =  -8.970170E-01
deltaQ =   3.154817E-06
 Dsol_rc =      -0.01649173     -0.00951103     -0.07088052
 Dele =       0.00000000      0.00000000     -0.05601772
alpha =   3.000000E-01
DIPOLC =       0.00000000      0.00000000     -0.08970170
ZVAL =  -8.970170E-01
deltaQ =   3.154817E-06
 Dsol_rc =      -0.01649173     -0.00951103     -0.07088052
 Dele =       0.00000000      0.00000000     -0.05601772
alpha =   3.000000E-01
DIPOLC =       0.00000000      0.00000000     -0.08970170
ZVAL =  -8.970170E-01
deltaQ =   3.154817E-06
 Dsol_rc =      -0.01649173     -0.00951103     -0.07088052
 Dele =       0.00000000      0.00000000     -0.05601772
alpha =   3.000000E-01
DIPOLC =       0.00000000      0.00000000     -0.08970170
ZVAL =  -8.970170E-01
deltaQ =   3.154817E-06
 Dsol_rc =      -0.01649173     -0.00951103     -0.07088052
 Dele =       0.00000000      0.00000000     -0.05601772
alpha =   3.000000E-01
DIPOLC =       0.00000000      0.00000000     -0.08970170
ZVAL =  -8.970170E-01
deltaQ =   3.154817E-06
 Dsol_rc =      -0.01649173     -0.00951103     -0.07088052
 Dele =       0.00000000      0.00000000     -0.05601772
alpha =   3.000000E-01
DIPOLC =       0.00000000      0.00000000     -0.08970170
ZVAL =  -8.970170E-01
deltaQ =   3.154817E-06
 Dsol_rc =      -0.01649173     -0.00951103     -0.07088052
 Dele =       0.00000000      0.00000000     -0.05601772
alpha =   3.000000E-01
DIPOLC =       0.00000000      0.00000000     -0.08970170
ZVAL =  -8.970170E-01
deltaQ =   3.154817E-06
 Dsol_rc =      -0.01649173     -0.00951103     -0.07088052
 Dele =       0.00000000      0.00000000     -0.05601772
alpha =   3.000000E-01
DIPOLC =       0.00000000      0.00000000     -0.08970170
ZVAL =  -8.970170E-01
deltaQ =   3.154817E-06
 Dsol_rc =      -0.01649173     -0.00951103     -0.07088052
 Dele =       0.00000000      0.00000000     -0.05601772
alpha =   3.000000E-01
DIPOLC =       0.00000000      0.00000000     -0.08970170
ZVAL =  -8.970170E-01
deltaQ =   3.154817E-06
 Dsol_rc =      -0.01649173     -0.00951103     -0.07088052
 Dele =       0.00000000      0.00000000     -0.05601772
alpha =   3.000000E-01
DIPOLC =       0.00000000      0.00000000     -0.08970170
ZVAL =  -8.970170E-01
deltaQ =   3.154817E-06
 Dsol_rc =      -0.01649173     -0.00951103     -0.07088052
 Dele =       0.00000000      0.00000000     -0.05601772
alpha =   3.000000E-01
DIPOLC =       0.00000000      0.00000000     -0.08970170
ZVAL =  -8.970170E-01
 Dsol_rc =      -0.01649173     -0.00951103     -0.07088052
 Dele =       0.00000000      0.00000000     -0.05601772
alpha =   3.000000E-01
DIPOLC =       0.00000000      0.00000000     -0.08970170
ZVAL =  -8.970170E-01
 Begin Solvation calculations
  rms_SCF =   1.103682094826673E-004 tol =   1.103682094826673E-005
 Begin minimization
 Creating dielectric and ionic cavities
  area:      239.953467428791     
  volume:    3289.56575398971     
  A_cav:    0.210919097869907     
  qion_max:     4.88309642875956     
  Solving nonlinear dielectric/ionic screening model
  Starting outer loop
        iter                  A_solv                     rms
 resid(G=0) =   5.049657229319604E-006
  NLPB:    0   0.258241906538343E+00   0.126382952539870E-01
   LPB:        0.258241906538343E+00   0.126382942451865E-01
   LPB:    0   0.258241906538496E+00   0.126460227936795E-01   0.609309E-07   0.000000E+00   0.828751E+02   0.504966E-05
   LPB:    1   0.258580267018887E+00   0.152785532734700E+00   0.811610E+00   0.000000E+00   0.424490E+01   0.479225E-22
   LPB:    2   0.258645776483016E+00   0.218922110139559E-01   0.685969E-02   0.229070E+02   0.226823E+02   0.171092E-14
   LPB:    3   0.258656299446002E+00   0.104219096231328E-01   0.105318E-01   0.104625E+00   0.135350E+03   0.171713E-14
   LPB:    4   0.258657527812023E+00   0.412558770781603E-02   0.117364E-01   0.104751E+00   0.811706E+02   0.175834E-14
   LPB:    5   0.258657649602688E+00   0.365106188240013E-02   0.696096E-02   0.167167E+00   0.303374E+03   0.165881E-14
   LPB:    6   0.258657768780890E+00   0.921534925823481E-03   0.112748E-01   0.604145E+00   0.445893E+03   0.165709E-14
    LS:    0   0.258657768151421E+00   0.415861613078550E-03   0.831724485093806E-03
 resid(G=0) =  -4.624689936560955E-009
  NLPB:    1   0.258657768151421E+00   0.922573619641213E-03
   LPB:        0.258657768151421E+00   0.922573619629622E-03
   LPB:    0   0.258657768151421E+00   0.922577424682675E-03  -0.558032E-10   0.000000E+00   0.828750E+02  -0.462469E-08
   LPB:    1   0.258657819299908E+00   0.161760094377870E-02   0.143611E-01   0.000000E+00   0.462169E+03   0.766354E-25
   LPB:    2   0.258657840180254E+00   0.164733312319732E-02   0.907997E-02   0.645669E+00   0.157162E+03  -0.924039E-17
   LPB:    3   0.258657883671834E+00   0.111087678999789E-02   0.178424E-01   0.105998E+01   0.788621E+02  -0.795991E-17
   LPB:    4   0.258657902808626E+00   0.420428405416996E-03   0.170365E-01   0.460827E+00   0.219525E+03   0.173506E-17
   LPB:    5   0.258657910606506E+00   0.549369358358172E-03   0.164344E-01   0.422408E+00   0.340954E+03  -0.150289E-16
   LPB:    6   0.258657915288768E+00   0.695870379109585E-03   0.129255E-01   0.763463E+00   0.109043E+03  -0.200927E-16
   LPB:    7   0.258657923011322E+00   0.204876600479741E-03   0.265726E-01   0.802265E+00   0.165261E+03  -0.243869E-16
   LPB:    8   0.258657924786564E+00   0.225118587231845E-03   0.164773E-01   0.370719E+00   0.488793E+03  -0.257306E-16
   LPB:    9   0.258657927155646E+00   0.121227612413481E-03   0.244976E-01   0.897602E+00   0.693600E+03  -0.288802E-16
   LPB:   10   0.258657928798015E+00   0.574116962939717E-04   0.282828E-01   0.600471E+00   0.103625E+03  -0.327923E-16
    LS:    0   0.258657928934489E+00   0.160783068081649E-06   0.321293187737643E-06
 resid(G=0) =  -1.909484903528380E-009
  NLPB:    2   0.258657928934489E+00   0.569175528785368E-04
   LPB:        0.258657928934489E+00   0.569175528465068E-04
   LPB:    0   0.258657928934489E+00   0.569155378900334E-04  -0.230405E-10   0.000000E+00   0.828751E+02  -0.190948E-08
   LPB:    1   0.258657929526999E+00   0.645573303663807E-04   0.221306E-01   0.000000E+00   0.439649E+03   0.560362E-25
   LPB:    2   0.258657929958584E+00   0.219932998440353E-03   0.280688E-01   0.574301E+00   0.447694E+03  -0.142870E-18
   LPB:    3   0.258657930200147E+00   0.109716765048282E-03   0.733776E-02   0.214105E+01   0.278909E+03   0.533969E-18
   LPB:    4   0.258657930442698E+00   0.885665489465326E-04   0.156418E-01   0.471029E+00   0.312176E+03   0.780459E-18
   LPB:    5   0.258657930815731E+00   0.572236012220634E-04   0.243678E-01   0.987220E+00   0.769716E+03   0.102098E-17
   LPB:    6   0.258657931057744E+00   0.103211449179805E-03   0.286731E-01   0.551361E+00   0.262309E+03   0.152843E-17
   LPB:    7   0.258657931186923E+00   0.733960660855669E-04   0.141225E-01   0.108371E+01   0.116305E+03   0.187584E-17
   LPB:    8   0.258657931305502E+00   0.607025682209030E-04   0.156222E-01   0.829824E+00   0.197708E+03   0.178054E-17
   LPB:    9   0.258657931422482E+00   0.426402841619248E-04   0.223248E-01   0.690331E+00   0.306102E+03   0.179155E-17
   LPB:   10   0.258657931487475E+00   0.267241081781060E-04   0.198028E-01   0.626355E+00   0.294804E+03   0.109401E-17
   LPB:   11   0.258657931537607E+00   0.240044146637430E-04   0.223762E-01   0.682630E+00   0.135313E+03   0.133089E-17
   LPB:   12   0.258657931574214E+00   0.196557971914887E-04   0.206690E-01   0.790516E+00   0.226141E+03   0.115463E-17
   LPB:   13   0.258657931599420E+00   0.131891422037262E-04   0.219927E-01   0.647140E+00   0.105169E+03   0.839679E-18
   LPB:   14   0.258657931607778E+00   0.218545101716600E-04   0.182826E-01   0.398853E+00   0.411873E+03   0.719128E-18
   LPB:   15   0.258657931611268E+00   0.202232868284673E-04   0.869663E-02   0.877916E+00   0.339029E+03   0.536879E-18
   LPB:   16   0.258657931619993E+00   0.493143181099654E-05   0.213649E-01   0.101749E+01   0.432946E+03   0.458087E-18
    LS:    0   0.258657931619962E+00   0.268547328818869E-08   0.537100704012995E-08
 resid(G=0) =  -6.817255093771735E-012
  NLPB:    3   0.258657931619962E+00   0.492899843961949E-05
  Finished solving NLPB equations
 End minimization
 Ecorr=   2069.17320493626     
 A_corr=  0.469577029489870     
 Ecorr_band=  -2068.70362790677     
 End Solvation calculations
RMM:  18    -0.194790842054E+03    0.11922E-01   -0.87024E-04 10591   0.259E-02    0.514E-01
deltaQ =   3.155707E-06
 Dsol_rc =      -0.01649806     -0.00951889     -0.07608190
 Dele =       0.00000000      0.00000000     -0.05972222
alpha =   6.000000E-01
DIPOLC =       0.00000000      0.00000000     -0.11736315
ZVAL =  -1.173631E+00
deltaQ =   3.155707E-06
deltaQ =   3.155707E-06
 Dsol_rc =      -0.01649806     -0.00951889     -0.07608190
 Dele =       0.00000000      0.00000000     -0.05972222
alpha =   6.000000E-01
DIPOLC =       0.00000000      0.00000000     -0.11736315
ZVAL =  -1.173631E+00
deltaQ =   3.155707E-06
 Dsol_rc =      -0.01649806     -0.00951889     -0.07608190
 Dele =       0.00000000      0.00000000     -0.05972222
alpha =   6.000000E-01
DIPOLC =       0.00000000      0.00000000     -0.11736315
ZVAL =  -1.173631E+00
deltaQ =   3.155707E-06
 Dsol_rc =      -0.01649806     -0.00951889     -0.07608190
 Dele =       0.00000000      0.00000000     -0.05972222
alpha =   6.000000E-01
DIPOLC =       0.00000000      0.00000000     -0.11736315
ZVAL =  -1.173631E+00
deltaQ =   3.155707E-06
 Dsol_rc =      -0.01649806     -0.00951889     -0.07608190
 Dele =       0.00000000      0.00000000     -0.05972222
alpha =   6.000000E-01
DIPOLC =       0.00000000      0.00000000     -0.11736315
ZVAL =  -1.173631E+00
deltaQ =   3.155707E-06
 Dsol_rc =      -0.01649806     -0.00951889     -0.07608190
 Dele =       0.00000000      0.00000000     -0.05972222
alpha =   6.000000E-01
DIPOLC =       0.00000000      0.00000000     -0.11736315
ZVAL =  -1.173631E+00
deltaQ =   3.155707E-06
 Dsol_rc =      -0.01649806     -0.00951889     -0.07608190
 Dele =       0.00000000      0.00000000     -0.05972222
alpha =   6.000000E-01
DIPOLC =       0.00000000      0.00000000     -0.11736315
ZVAL =  -1.173631E+00
deltaQ =   3.155707E-06
 Dsol_rc =      -0.01649806     -0.00951889     -0.07608190
 Dele =       0.00000000      0.00000000     -0.05972222
alpha =   6.000000E-01
DIPOLC =       0.00000000      0.00000000     -0.11736315
ZVAL =  -1.173631E+00
deltaQ =   3.155707E-06
 Dsol_rc =      -0.01649806     -0.00951889     -0.07608190
 Dele =       0.00000000      0.00000000     -0.05972222
alpha =   6.000000E-01
DIPOLC =       0.00000000      0.00000000     -0.11736315
ZVAL =  -1.173631E+00
deltaQ =   3.155707E-06
 Dsol_rc =      -0.01649806     -0.00951889     -0.07608190
 Dele =       0.00000000      0.00000000     -0.05972222
alpha =   6.000000E-01
DIPOLC =       0.00000000      0.00000000     -0.11736315
ZVAL =  -1.173631E+00
deltaQ =   3.155707E-06
 Dsol_rc =      -0.01649806     -0.00951889     -0.07608190
 Dele =       0.00000000      0.00000000     -0.05972222
alpha =   6.000000E-01
DIPOLC =       0.00000000      0.00000000     -0.11736315
ZVAL =  -1.173631E+00
deltaQ =   3.155707E-06
 Dsol_rc =      -0.01649806     -0.00951889     -0.07608190
 Dele =       0.00000000      0.00000000     -0.05972222
alpha =   6.000000E-01
DIPOLC =       0.00000000      0.00000000     -0.11736315
ZVAL =  -1.173631E+00
deltaQ =   3.155707E-06
 Dsol_rc =      -0.01649806     -0.00951889     -0.07608190
 Dele =       0.00000000      0.00000000     -0.05972222
alpha =   6.000000E-01
DIPOLC =       0.00000000      0.00000000     -0.11736315
ZVAL =  -1.173631E+00
deltaQ =   3.155707E-06
 Dsol_rc =      -0.01649806     -0.00951889     -0.07608190
 Dele =       0.00000000      0.00000000     -0.05972222
alpha =   6.000000E-01
DIPOLC =       0.00000000      0.00000000     -0.11736315
ZVAL =  -1.173631E+00
deltaQ =   3.155707E-06
 Dsol_rc =      -0.01649806     -0.00951889     -0.07608190
 Dele =       0.00000000      0.00000000     -0.05972222
alpha =   6.000000E-01
DIPOLC =       0.00000000      0.00000000     -0.11736315
ZVAL =  -1.173631E+00
 Dsol_rc =      -0.01649806     -0.00951889     -0.07608190
 Dele =       0.00000000      0.00000000     -0.05972222
alpha =   6.000000E-01
DIPOLC =       0.00000000      0.00000000     -0.11736315
ZVAL =  -1.173631E+00
 Begin Solvation calculations
  rms_SCF =   1.103682094826673E-004 tol =   1.103682094826673E-005
 Begin minimization
 Creating dielectric and ionic cavities
  area:      239.953567642280     
  volume:    3289.54733472894     
  A_cav:    0.210919185957564     
  qion_max:     4.88314813150835     
  Solving nonlinear dielectric/ionic screening model
  Starting outer loop
        iter                  A_solv                     rms
 resid(G=0) =   2.569812657518544E-006
  NLPB:    0   0.257146396839850E+00   0.115346064250042E-01
   LPB:        0.257146396839850E+00   0.115346061387380E-01
   LPB:    0   0.257146396839890E+00   0.115370996180238E-01   0.310079E-07   0.000000E+00   0.828760E+02   0.256981E-05
   LPB:    1   0.258107145631355E+00   0.193883184312855E+00   0.903439E+00   0.000000E+00   0.153349E+02  -0.147762E-21
   LPB:    2   0.258193164135999E+00   0.226758207802694E-01   0.594943E-02   0.135958E+02   0.872431E+02   0.926954E-15
   LPB:    3   0.258207396400458E+00   0.933874814669094E-02   0.137023E-01   0.718399E-01   0.133428E+03   0.132316E-14
   LPB:    4   0.258208270815639E+00   0.543528470267281E-02   0.111420E-01   0.755563E-01   0.818920E+02   0.149431E-14
   LPB:    5   0.258208438513244E+00   0.381376654942936E-02   0.664537E-02   0.321555E+00   0.229948E+03   0.158979E-14
   LPB:    6   0.258208604429609E+00   0.875189375310838E-03   0.127113E-01   0.517240E+00   0.458581E+03   0.160458E-14
    LS:    0   0.258208604737471E+00   0.106220789762174E-02   0.212441517951766E-02
 resid(G=0) =  -5.052877088962404E-009
  NLPB:    1   0.258208604737471E+00   0.874109069335447E-03
   LPB:        0.258208604737471E+00   0.874109069320842E-03
   LPB:    0   0.258208604737471E+00   0.874105048150259E-03  -0.609690E-10   0.000000E+00   0.828761E+02  -0.505288E-08
   LPB:    1   0.258208664123374E+00   0.136581972663661E-02   0.144244E-01   0.000000E+00   0.546566E+03  -0.443854E-24
   LPB:    2   0.258208687763803E+00   0.196025881039870E-02   0.107429E-01   0.534503E+00   0.186080E+03   0.373887E-17
   LPB:    3   0.258208725738480E+00   0.128986960133037E-02   0.132660E-01   0.130082E+01   0.208794E+03   0.479052E-17
   LPB:    4   0.258208751459802E+00   0.385068463317900E-03   0.180011E-01   0.499161E+00   0.867163E+02   0.380887E-17
   LPB:    5   0.258208760843526E+00   0.556666599817232E-03   0.218146E-01   0.301047E+00   0.229456E+03   0.256742E-16
   LPB:    6   0.258208765145968E+00   0.649342830892494E-03   0.116236E-01   0.860491E+00   0.119608E+03   0.327393E-16
   LPB:    7   0.258208771933192E+00   0.311513126044550E-03   0.254326E-01   0.720986E+00   0.488384E+03   0.371073E-16
   LPB:    8   0.258208774408625E+00   0.191607673278269E-03   0.136565E-01   0.679220E+00   0.508159E+03   0.387645E-16
   LPB:    9   0.258208776377061E+00   0.956629674698326E-04   0.215809E-01   0.503198E+00   0.600681E+03   0.403466E-16
   LPB:   10   0.258208778315584E+00   0.465862589305530E-04   0.327627E-01   0.648695E+00   0.326780E+03   0.410165E-16
    LS:    0   0.258208778234408E+00   0.173496936428652E-06   0.347156225657647E-06
 resid(G=0) =  -1.880202313286894E-009
  NLPB:    2   0.258208778234408E+00   0.463534770899678E-04
   LPB:        0.258208778234408E+00   0.463534770518352E-04
   LPB:    0   0.258208778234408E+00   0.463522289867463E-04  -0.226869E-10   0.000000E+00   0.828760E+02  -0.188020E-08
   LPB:    1   0.258208778922092E+00   0.476855353292795E-04   0.197507E-01   0.000000E+00   0.141595E+04   0.481609E-25
   LPB:    2   0.258208779353287E+00   0.104582083534724E-03   0.273060E-01   0.453534E+00   0.980880E+03  -0.334587E-18
   LPB:    3   0.258208779661546E+00   0.189271248999801E-03   0.161674E-01   0.120743E+01   0.395708E+03  -0.663768E-18
   LPB:    4   0.258208779945011E+00   0.150238457138464E-03   0.102256E-01   0.145390E+01   0.263999E+03  -0.864770E-18
   LPB:    5   0.258208780257850E+00   0.750491006214920E-04   0.131724E-01   0.856733E+00   0.329981E+03  -0.888202E-18
   LPB:    6   0.258208780508932E+00   0.136310440022937E-03   0.296570E-01   0.356477E+00   0.285811E+03  -0.884734E-18
   LPB:    7   0.258208780644486E+00   0.584330595950911E-04   0.118719E-01   0.134866E+01   0.237487E+03  -0.977712E-18
   LPB:    8   0.258208780837960E+00   0.539867187371394E-04   0.232263E-01   0.729548E+00   0.228628E+03  -0.479616E-18
   LPB:    9   0.258208780937748E+00   0.391556918070837E-04   0.201600E-01   0.594214E+00   0.114277E+03   0.199344E-18
   LPB:   10   0.258208781007303E+00   0.296298898423656E-04   0.205142E-01   0.684993E+00   0.430950E+03   0.693829E-18
   LPB:   11   0.258208781079972E+00   0.285055109940657E-04   0.261703E-01   0.818968E+00   0.209676E+03   0.340299E-18
   LPB:   12   0.258208781110233E+00   0.150719301868769E-04   0.157233E-01   0.693122E+00   0.441035E+03  -0.383099E-18
   LPB:   13   0.258208781136939E+00   0.769780261701934E-05   0.299217E-01   0.463737E+00   0.189214E+03  -0.353264E-18
   LPB:   14   0.258208781145349E+00   0.232868499664335E-04   0.215196E-01   0.437871E+00   0.372082E+03  -0.467057E-18
   LPB:   15   0.258208781149623E+00   0.225851143274549E-04   0.859305E-02   0.127265E+01   0.321929E+03  -0.464236E-18
   LPB:   16   0.258208781157095E+00   0.743080649327012E-05   0.170707E-01   0.879979E+00   0.305773E+03  -0.520213E-18
   LPB:   17   0.258208781166240E+00   0.442807531108083E-05   0.362066E-01   0.577118E+00   0.170057E+04  -0.675724E-18
    LS:    0   0.258208781166337E+00   0.293192936595688E-08   0.586366417631982E-08
 resid(G=0) =  -8.006137419691584E-012
  NLPB:    3   0.258208781166337E+00   0.442732357506954E-05
  Finished solving NLPB equations
 End minimization
 Ecorr=   2066.57253044400     
 A_corr=  0.469127967123901     
 Ecorr_band=  -2066.10340247687     
 End Solvation calculations
RMM:  19    -0.194783865698E+03    0.69764E-02   -0.48414E-04 10019   0.187E-02    0.422E-01
deltaQ =   3.158882E-06
 Dsol_rc =      -0.01648512     -0.00952443     -0.06980697
 Dele =       0.00000000      0.00000000     -0.07688200
alpha =   6.000000E-01
DIPOLC =       0.00000000      0.00000000     -0.13495864
ZVAL =  -1.349586E+00
deltaQ =   3.158882E-06
 Dsol_rc =      -0.01648512     -0.00952443     -0.06980697
 Dele =       0.00000000      0.00000000     -0.07688200
alpha =   6.000000E-01
DIPOLC =       0.00000000      0.00000000     -0.13495864
ZVAL =  -1.349586E+00
deltaQ =   3.158882E-06
deltaQ =   3.158882E-06
 Dsol_rc =      -0.01648512     -0.00952443     -0.06980697
 Dele =       0.00000000      0.00000000     -0.07688200
alpha =   6.000000E-01
DIPOLC =       0.00000000      0.00000000     -0.13495864
ZVAL =  -1.349586E+00
deltaQ =   3.158882E-06
 Dsol_rc =      -0.01648512     -0.00952443     -0.06980697
 Dele =       0.00000000      0.00000000     -0.07688200
alpha =   6.000000E-01
DIPOLC =       0.00000000      0.00000000     -0.13495864
ZVAL =  -1.349586E+00
deltaQ =   3.158882E-06
 Dsol_rc =      -0.01648512     -0.00952443     -0.06980697
 Dele =       0.00000000      0.00000000     -0.07688200
alpha =   6.000000E-01
DIPOLC =       0.00000000      0.00000000     -0.13495864
ZVAL =  -1.349586E+00
deltaQ =   3.158882E-06
 Dsol_rc =      -0.01648512     -0.00952443     -0.06980697
 Dele =       0.00000000      0.00000000     -0.07688200
alpha =   6.000000E-01
DIPOLC =       0.00000000      0.00000000     -0.13495864
ZVAL =  -1.349586E+00
deltaQ =   3.158882E-06
 Dsol_rc =      -0.01648512     -0.00952443     -0.06980697
 Dele =       0.00000000      0.00000000     -0.07688200
alpha =   6.000000E-01
DIPOLC =       0.00000000      0.00000000     -0.13495864
ZVAL =  -1.349586E+00
deltaQ =   3.158882E-06
 Dsol_rc =      -0.01648512     -0.00952443     -0.06980697
 Dele =       0.00000000      0.00000000     -0.07688200
alpha =   6.000000E-01
DIPOLC =       0.00000000      0.00000000     -0.13495864
ZVAL =  -1.349586E+00
deltaQ =   3.158882E-06
 Dsol_rc =      -0.01648512     -0.00952443     -0.06980697
 Dele =       0.00000000      0.00000000     -0.07688200
alpha =   6.000000E-01
DIPOLC =       0.00000000      0.00000000     -0.13495864
ZVAL =  -1.349586E+00
deltaQ =   3.158882E-06
 Dsol_rc =      -0.01648512     -0.00952443     -0.06980697
 Dele =       0.00000000      0.00000000     -0.07688200
alpha =   6.000000E-01
DIPOLC =       0.00000000      0.00000000     -0.13495864
ZVAL =  -1.349586E+00
deltaQ =   3.158882E-06
 Dsol_rc =      -0.01648512     -0.00952443     -0.06980697
 Dele =       0.00000000      0.00000000     -0.07688200
alpha =   6.000000E-01
DIPOLC =       0.00000000      0.00000000     -0.13495864
ZVAL =  -1.349586E+00
deltaQ =   3.158882E-06
 Dsol_rc =      -0.01648512     -0.00952443     -0.06980697
 Dele =       0.00000000      0.00000000     -0.07688200
alpha =   6.000000E-01
DIPOLC =       0.00000000      0.00000000     -0.13495864
ZVAL =  -1.349586E+00
deltaQ =   3.158882E-06
 Dsol_rc =      -0.01648512     -0.00952443     -0.06980697
 Dele =       0.00000000      0.00000000     -0.07688200
alpha =   6.000000E-01
DIPOLC =       0.00000000      0.00000000     -0.13495864
ZVAL =  -1.349586E+00
deltaQ =   3.158882E-06
 Dsol_rc =      -0.01648512     -0.00952443     -0.06980697
 Dele =       0.00000000      0.00000000     -0.07688200
alpha =   6.000000E-01
DIPOLC =       0.00000000      0.00000000     -0.13495864
ZVAL =  -1.349586E+00
deltaQ =   3.158882E-06
 Dsol_rc =      -0.01648512     -0.00952443     -0.06980697
 Dele =       0.00000000      0.00000000     -0.07688200
alpha =   6.000000E-01
DIPOLC =       0.00000000      0.00000000     -0.13495864
ZVAL =  -1.349586E+00
 Dsol_rc =      -0.01648512     -0.00952443     -0.06980697
 Dele =       0.00000000      0.00000000     -0.07688200
alpha =   6.000000E-01
DIPOLC =       0.00000000      0.00000000     -0.13495864
ZVAL =  -1.349586E+00
 Begin Solvation calculations
  rms_SCF =   1.103682094826673E-004 tol =   1.103682094826673E-005
 Begin minimization
 Creating dielectric and ionic cavities
  area:      239.953530758577     
  volume:    3289.54231875012     
  A_cav:    0.210919153536789     
  qion_max:     4.88316251910988     
  Solving nonlinear dielectric/ionic screening model
  Starting outer loop
        iter                  A_solv                     rms
 resid(G=0) =   7.102502552064349E-007
  NLPB:    0   0.257674311563106E+00   0.942337670377484E-02
   LPB:        0.257674311563106E+00   0.942337667700867E-02
   LPB:    0   0.257674311563109E+00   0.942409321287462E-02   0.857001E-08   0.000000E+00   0.828763E+02   0.710250E-06
   LPB:    1   0.257880436245316E+00   0.203993696075212E+00   0.471506E+00   0.000000E+00   0.169927E+02   0.622918E-22
   LPB:    2   0.258030726624099E+00   0.585023163366877E-01   0.989386E-02   0.347474E+02   0.370168E+02   0.116124E-15
   LPB:    3   0.258102638337822E+00   0.121980170145711E-01   0.168583E-01   0.280815E+00   0.921316E+02   0.101823E-14
   LPB:    4   0.258105143438636E+00   0.312732134749685E-02   0.112662E-01   0.521267E-01   0.130501E+03   0.257771E-14
   LPB:    5   0.258105876742452E+00   0.490261495947359E-02   0.183639E-01   0.179587E+00   0.906611E+03   0.238092E-14
   LPB:    6   0.258106025851850E+00   0.365171751593985E-02   0.691671E-02   0.539866E+00   0.323558E+03   0.238120E-14
   LPB:    7   0.258106217356030E+00   0.601147753016368E-03   0.142494E-01   0.623415E+00   0.740586E+03   0.238349E-14
    LS:    0   0.258106217022432E+00   0.431905459326254E-03   0.863811585848124E-03
 resid(G=0) =  -9.898188338408609E-009
  NLPB:    1   0.258106217022432E+00   0.602239672155138E-03
   LPB:        0.258106217022432E+00   0.602239672073797E-03
   LPB:    0   0.258106217022432E+00   0.602246220667447E-03  -0.119433E-09   0.000000E+00   0.828765E+02  -0.989819E-08
   LPB:    1   0.258106281779498E+00   0.133089266668019E-02   0.175634E-01   0.000000E+00   0.103247E+04   0.506054E-24
   LPB:    2   0.258106307235998E+00   0.212935287070514E-02   0.111373E-01   0.619926E+00   0.336453E+03  -0.555896E-17
   LPB:    3   0.258106350363028E+00   0.612903911963906E-03   0.132161E-01   0.142767E+01   0.451654E+03  -0.361272E-17
   LPB:    4   0.258106382209350E+00   0.778796139858218E-03   0.260141E-01   0.375150E+00   0.225490E+03   0.854819E-18
   LPB:    5   0.258106399620008E+00   0.281788062268658E-03   0.172791E-01   0.823084E+00   0.204266E+03   0.137292E-16
   LPB:    6   0.258106406584293E+00   0.451453103224880E-03   0.224894E-01   0.307329E+00   0.299843E+03   0.505292E-17
   LPB:    7   0.258106410683922E+00   0.603649905417363E-03   0.142510E-01   0.928968E+00   0.136192E+03   0.586925E-17
   LPB:    8   0.258106415552860E+00   0.404303576165071E-03   0.201145E-01   0.841446E+00   0.419936E+03   0.786589E-17
   LPB:    9   0.258106418527663E+00   0.166255697743515E-03   0.135028E-01   0.910144E+00   0.415061E+03   0.577307E-17
   LPB:   10   0.258106420853575E+00   0.126314913449965E-03   0.225110E-01   0.468989E+00   0.736936E+03   0.317761E-17
   LPB:   11   0.258106422451230E+00   0.661719763782300E-04   0.346107E-01   0.446760E+00   0.163786E+03   0.108717E-17
   LPB:   12   0.258106423714415E+00   0.114844768409379E-03   0.414474E-01   0.660233E+00   0.128583E+04   0.952170E-18
   LPB:   13   0.258106424125849E+00   0.229944180586598E-03   0.131408E-01   0.102733E+01   0.422983E+03   0.138390E-18
   LPB:   14   0.258106424421479E+00   0.100205593001149E-03   0.814939E-02   0.115863E+01   0.405240E+03  -0.353146E-18
   LPB:   15   0.258106424726118E+00   0.572839022223943E-04   0.183824E-01   0.456834E+00   0.437968E+03  -0.668814E-18
    LS:    0   0.258106424738439E+00   0.207716006672687E-06   0.415407371474209E-06
 resid(G=0) =  -1.551535677712934E-009
  NLPB:    2   0.258106424738439E+00   0.574984822917840E-04
   LPB:        0.258106424738439E+00   0.574984822708508E-04
   LPB:    0   0.258106424738439E+00   0.574991023290822E-04  -0.187211E-10   0.000000E+00   0.828765E+02  -0.155154E-08
   LPB:    1   0.258106424876891E+00   0.524538226478097E-04   0.117806E-01   0.000000E+00   0.558650E+03  -0.244948E-25
   LPB:    2   0.258106424989653E+00   0.120364037733537E-03   0.189362E-01   0.506681E+00   0.456993E+03  -0.877416E-19
   LPB:    3   0.258106425082199E+00   0.682608868291628E-04   0.888126E-02   0.174992E+01   0.398938E+03  -0.173605E-18
   LPB:    4   0.258106425232714E+00   0.177838094368577E-04   0.209192E-01   0.690478E+00   0.122001E+04  -0.294651E-18
   LPB:    5   0.258106425341489E+00   0.300266910966832E-04   0.325580E-01   0.464339E+00   0.685423E+03  -0.814978E-18
   LPB:    6   0.258106425420603E+00   0.227714776235161E-04   0.250569E-01   0.945051E+00   0.376586E+03  -0.148243E-17
   LPB:    7   0.258106425501390E+00   0.322431412277078E-04   0.300986E-01   0.850104E+00   0.222907E+03  -0.216542E-17
   LPB:    8   0.258106425548772E+00   0.482997422261368E-04   0.222804E-01   0.792297E+00   0.303238E+03  -0.282726E-17
   LPB:    9   0.258106425573219E+00   0.295103542981685E-04   0.109441E-01   0.105043E+01   0.249770E+03  -0.397866E-17
   LPB:   10   0.258106425599902E+00   0.280854764531566E-04   0.239770E-01   0.498169E+00   0.300235E+03  -0.454060E-17
   LPB:   11   0.258106425618299E+00   0.188883483842767E-04   0.166976E-01   0.990094E+00   0.341028E+03  -0.526886E-17
   LPB:   12   0.258106425640054E+00   0.260231436951333E-04   0.252575E-01   0.781724E+00   0.308775E+03  -0.570277E-17
   LPB:   13   0.258106425644964E+00   0.242102630643055E-04   0.768609E-02   0.741746E+00   0.304454E+03  -0.639950E-17
   LPB:   14   0.258106425654682E+00   0.599010793979532E-05   0.179136E-01   0.849120E+00   0.659491E+03  -0.657812E-17
   LPB:   15   0.258106425660838E+00   0.453399068633351E-05   0.319150E-01   0.355573E+00   0.312321E+03  -0.696254E-17
    LS:    0   0.258106425660778E+00   0.922338982967119E-09   0.184479911911772E-08
 resid(G=0) =  -9.429790281956230E-012
  NLPB:    3   0.258106425660778E+00   0.453424896263837E-05
  Finished solving NLPB equations
 End minimization
 Ecorr=   2067.15556373457     
 A_corr=  0.469025579197567     
 Ecorr_band=  -2066.68653815538     
 End Solvation calculations
RMM:  20    -0.194780554393E+03    0.33113E-02   -0.16343E-04  9035   0.108E-02    0.365E-01
deltaQ =   3.160888E-06
 Dsol_rc =      -0.01647668     -0.00953037     -0.05503966
 Dele =       0.00000000      0.00000000     -0.07681903
alpha =   6.000000E-01
DIPOLC =       0.00000000      0.00000000     -0.13309867
ZVAL =  -1.330987E+00
deltaQ =   3.160888E-06
deltaQ =   3.160888E-06
 Dsol_rc =      -0.01647668     -0.00953037     -0.05503966
 Dele =       0.00000000      0.00000000     -0.07681903
alpha =   6.000000E-01
DIPOLC =       0.00000000      0.00000000     -0.13309867
ZVAL =  -1.330987E+00
deltaQ =   3.160888E-06
 Dsol_rc =      -0.01647668     -0.00953037     -0.05503966
 Dele =       0.00000000      0.00000000     -0.07681903
alpha =   6.000000E-01
DIPOLC =       0.00000000      0.00000000     -0.13309867
ZVAL =  -1.330987E+00
deltaQ =   3.160888E-06
 Dsol_rc =      -0.01647668     -0.00953037     -0.05503966
 Dele =       0.00000000      0.00000000     -0.07681903
alpha =   6.000000E-01
DIPOLC =       0.00000000      0.00000000     -0.13309867
ZVAL =  -1.330987E+00
deltaQ =   3.160888E-06
 Dsol_rc =      -0.01647668     -0.00953037     -0.05503966
 Dele =       0.00000000      0.00000000     -0.07681903
alpha =   6.000000E-01
DIPOLC =       0.00000000      0.00000000     -0.13309867
ZVAL =  -1.330987E+00
deltaQ =   3.160888E-06
 Dsol_rc =      -0.01647668     -0.00953037     -0.05503966
 Dele =       0.00000000      0.00000000     -0.07681903
alpha =   6.000000E-01
DIPOLC =       0.00000000      0.00000000     -0.13309867
ZVAL =  -1.330987E+00
deltaQ =   3.160888E-06
 Dsol_rc =      -0.01647668     -0.00953037     -0.05503966
 Dele =       0.00000000      0.00000000     -0.07681903
alpha =   6.000000E-01
DIPOLC =       0.00000000      0.00000000     -0.13309867
ZVAL =  -1.330987E+00
deltaQ =   3.160888E-06
 Dsol_rc =      -0.01647668     -0.00953037     -0.05503966
 Dele =       0.00000000      0.00000000     -0.07681903
alpha =   6.000000E-01
DIPOLC =       0.00000000      0.00000000     -0.13309867
ZVAL =  -1.330987E+00
deltaQ =   3.160888E-06
 Dsol_rc =      -0.01647668     -0.00953037     -0.05503966
 Dele =       0.00000000      0.00000000     -0.07681903
alpha =   6.000000E-01
DIPOLC =       0.00000000      0.00000000     -0.13309867
ZVAL =  -1.330987E+00
deltaQ =   3.160888E-06
 Dsol_rc =      -0.01647668     -0.00953037     -0.05503966
 Dele =       0.00000000      0.00000000     -0.07681903
alpha =   6.000000E-01
DIPOLC =       0.00000000      0.00000000     -0.13309867
ZVAL =  -1.330987E+00
deltaQ =   3.160888E-06
 Dsol_rc =      -0.01647668     -0.00953037     -0.05503966
 Dele =       0.00000000      0.00000000     -0.07681903
alpha =   6.000000E-01
DIPOLC =       0.00000000      0.00000000     -0.13309867
ZVAL =  -1.330987E+00
deltaQ =   3.160888E-06
 Dsol_rc =      -0.01647668     -0.00953037     -0.05503966
 Dele =       0.00000000      0.00000000     -0.07681903
alpha =   6.000000E-01
DIPOLC =       0.00000000      0.00000000     -0.13309867
ZVAL =  -1.330987E+00
deltaQ =   3.160888E-06
 Dsol_rc =      -0.01647668     -0.00953037     -0.05503966
 Dele =       0.00000000      0.00000000     -0.07681903
alpha =   6.000000E-01
DIPOLC =       0.00000000      0.00000000     -0.13309867
ZVAL =  -1.330987E+00
deltaQ =   3.160888E-06
 Dsol_rc =      -0.01647668     -0.00953037     -0.05503966
 Dele =       0.00000000      0.00000000     -0.07681903
alpha =   6.000000E-01
DIPOLC =       0.00000000      0.00000000     -0.13309867
ZVAL =  -1.330987E+00
deltaQ =   3.160888E-06
 Dsol_rc =      -0.01647668     -0.00953037     -0.05503966
 Dele =       0.00000000      0.00000000     -0.07681903
alpha =   6.000000E-01
DIPOLC =       0.00000000      0.00000000     -0.13309867
ZVAL =  -1.330987E+00
 Dsol_rc =      -0.01647668     -0.00953037     -0.05503966
 Dele =       0.00000000      0.00000000     -0.07681903
alpha =   6.000000E-01
DIPOLC =       0.00000000      0.00000000     -0.13309867
ZVAL =  -1.330987E+00
 Begin Solvation calculations
  rms_SCF =   1.103682094826673E-004 tol =   1.103682094826673E-005
 Begin minimization
 Creating dielectric and ionic cavities
  area:      239.953556156054     
  volume:    3289.53124974869     
  A_cav:    0.210919175861172     
  qion_max:     4.88319439965667     
  Solving nonlinear dielectric/ionic screening model
  Starting outer loop
        iter                  A_solv                     rms
 resid(G=0) =   1.551285631631871E-006
  NLPB:    0   0.257893737016097E+00   0.345881541852560E-02
   LPB:        0.257893737016097E+00   0.345881507064823E-02
   LPB:    0   0.257893737016111E+00   0.345880148547169E-02   0.187179E-07   0.000000E+00   0.828770E+02   0.155129E-05
   LPB:    1   0.257894021003180E+00   0.777677256150385E-02   0.308592E-01   0.000000E+00   0.495685E+02  -0.602487E-23
   LPB:    2   0.257894824059912E+00   0.660280979624729E-02   0.245865E-01   0.354923E+01   0.442157E+02   0.572335E-17
   LPB:    3   0.257898599324718E+00   0.756397671167649E-02   0.701663E-01   0.164729E+01   0.680167E+01  -0.285070E-17
   LPB:    4   0.257899932448346E+00   0.314585874763170E-02   0.133037E-01   0.186242E+01   0.303425E+02   0.507368E-16
   LPB:    5   0.257900086161169E+00   0.443978735744441E-02   0.942733E-02   0.162714E+00   0.141684E+03   0.211018E-15
   LPB:    6   0.257900194064052E+00   0.109559152014537E-02   0.802196E-02   0.824957E+00   0.185398E+03   0.222770E-15
   LPB:    7   0.257900262406681E+00   0.378608465153702E-03   0.196507E-01   0.258559E+00   0.626034E+03   0.229414E-15
   LPB:    8   0.257900292015986E+00   0.294622841956617E-03   0.285264E-01   0.298448E+00   0.268119E+03   0.226414E-15
    LS:    0   0.257900291936705E+00   0.655492060808172E-05   0.131099997781953E-04
 resid(G=0) =  -7.949697580778015E-009
  NLPB:    1   0.257900291936705E+00   0.295096545387933E-03
   LPB:        0.257900291936705E+00   0.295096545280853E-03
   LPB:    0   0.257900291936705E+00   0.295108831535673E-03  -0.959218E-10   0.000000E+00   0.828769E+02  -0.794970E-08
   LPB:    1   0.257900300761246E+00   0.275462003533622E-03   0.208138E-01   0.000000E+00   0.194319E+03  -0.426371E-24
   LPB:    2   0.257900306100234E+00   0.372358956115875E-03   0.243056E-01   0.518097E+00   0.548276E+03   0.294895E-18
   LPB:    3   0.257900310831979E+00   0.289516546159105E-03   0.177671E-01   0.121242E+01   0.457384E+03  -0.469881E-18
   LPB:    4   0.257900313180731E+00   0.641920471168729E-03   0.156883E-01   0.562155E+00   0.270692E+03  -0.101879E-17
   LPB:    5   0.257900315338836E+00   0.161146885284068E-03   0.841278E-02   0.171345E+01   0.230269E+03  -0.137238E-17
   LPB:    6   0.257900316960037E+00   0.666587113256498E-04   0.203398E-01   0.310712E+00   0.482983E+03  -0.205249E-17
   LPB:    7   0.257900317615056E+00   0.894711525995550E-04   0.246492E-01   0.333396E+00   0.317657E+03  -0.308408E-17
   LPB:    8   0.257900318187908E+00   0.169577346714177E-03   0.240878E-01   0.894938E+00   0.168529E+03  -0.345209E-17
   LPB:    9   0.257900318614986E+00   0.172337859017913E-03   0.191305E-01   0.938722E+00   0.213867E+03  -0.505207E-17
   LPB:   10   0.257900318890532E+00   0.570194469929756E-04   0.112869E-01   0.109355E+01   0.234236E+03  -0.193466E-17
   LPB:   11   0.257900319131195E+00   0.518884069114652E-04   0.267257E-01   0.368860E+00   0.505722E+03  -0.458933E-18
   LPB:   12   0.257900319238389E+00   0.358726354659272E-04   0.159969E-01   0.744139E+00   0.282046E+03  -0.192362E-18
   LPB:   13   0.257900319340828E+00   0.239916632729171E-04   0.244704E-01   0.624724E+00   0.615823E+03  -0.625091E-19
    LS:    0   0.257900319348651E+00   0.274119456578070E-07   0.548082451019864E-07
 resid(G=0) =  -8.089452718795798E-011
  NLPB:    2   0.257900319348651E+00   0.239516540676580E-04
   LPB:        0.257900319348651E+00   0.239516540675214E-04
   LPB:    0   0.257900319348651E+00   0.239516169967976E-04  -0.976081E-12   0.000000E+00   0.828769E+02  -0.808945E-10
   LPB:    1   0.257900319401660E+00   0.229967449430354E-04   0.159578E-01   0.000000E+00   0.638561E+03   0.685185E-27
   LPB:    2   0.257900319441143E+00   0.279920067836428E-04   0.230848E-01   0.514872E+00   0.465299E+03  -0.740231E-19
   LPB:    3   0.257900319485048E+00   0.298556018912756E-04   0.237955E-01   0.107879E+01   0.688098E+03  -0.112401E-18
   LPB:    4   0.257900319510597E+00   0.614155254499893E-04   0.150280E-01   0.921417E+00   0.216669E+03  -0.123033E-18
   LPB:    5   0.257900319536158E+00   0.344758597425061E-04   0.980103E-02   0.153401E+01   0.170484E+03  -0.229815E-18
   LPB:    6   0.257900319561500E+00   0.522658156702436E-04   0.162233E-01   0.598980E+00   0.314675E+03  -0.341703E-18
   LPB:    7   0.257900319579479E+00   0.180124556140426E-04   0.122124E-01   0.942421E+00   0.162806E+03  -0.301232E-18
   LPB:    8   0.257900319599315E+00   0.105872050647006E-04   0.237512E-01   0.567283E+00   0.222223E+03  -0.258229E-18
   LPB:    9   0.257900319618138E+00   0.165813522768722E-04   0.304820E-01   0.739420E+00   0.295235E+03  -0.251528E-18
   LPB:   10   0.257900319632088E+00   0.111217568413439E-04   0.220387E-01   0.102506E+01   0.802207E+02  -0.279525E-18
   LPB:   11   0.257900319641591E+00   0.823698523893556E-05   0.275815E-01   0.544271E+00   0.337274E+03  -0.632488E-18
   LPB:   12   0.257900319646444E+00   0.103551583595350E-04   0.199742E-01   0.705357E+00   0.311665E+03  -0.863095E-18
   LPB:   13   0.257900319650112E+00   0.490663487134648E-05   0.183595E-01   0.821973E+00   0.152688E+03  -0.102617E-17
   LPB:   14   0.257900319655597E+00   0.368012022042873E-05   0.415491E-01   0.660959E+00   0.180244E+03  -0.118296E-17
   LPB:   15   0.257900319658138E+00   0.518295768789360E-05   0.205270E-01   0.937638E+00   0.342364E+03  -0.127778E-17
   LPB:   16   0.257900319658686E+00   0.994392551728872E-05   0.115595E-01   0.382754E+00   0.275574E+03  -0.133388E-17
   LPB:   17   0.257900319659403E+00   0.267351303813606E-05   0.108442E-01   0.139643E+01   0.256651E+03  -0.134231E-17
   LPB:   18   0.257900319660046E+00   0.129661387009291E-05   0.239368E-01   0.405543E+00   0.204784E+03  -0.135938E-17
    LS:    0   0.257900319660153E+00   0.311502268424135E-09   0.622790239207115E-09
 resid(G=0) =  -1.976668828618244E-012
  NLPB:    3   0.257900319660153E+00   0.129654234233650E-05
  Finished solving NLPB equations
 End minimization
 Ecorr=   2064.64900796776     
 A_corr=  0.468819495521325     
 Ecorr_band=  -2064.18018847223     
 End Solvation calculations
RMM:  21    -0.194780119859E+03    0.43453E-03   -0.11401E-05  7037   0.349E-03    0.358E-01
deltaQ =   3.162447E-06
 Dsol_rc =      -0.01650463     -0.00953010     -0.06580477
 Dele =       0.00000000      0.00000000     -0.07863522
alpha =   3.000000E-01
DIPOLC =       0.00000000      0.00000000     -0.13650107
ZVAL =  -1.365011E+00
deltaQ =   3.162447E-06
 Dsol_rc =      -0.01650463     -0.00953010     -0.06580477
 Dele =       0.00000000      0.00000000     -0.07863522
alpha =   3.000000E-01
DIPOLC =       0.00000000      0.00000000     -0.13650107
ZVAL =  -1.365011E+00
deltaQ =   3.162447E-06
 Dsol_rc =      -0.01650463     -0.00953010     -0.06580477
 Dele =       0.00000000      0.00000000     -0.07863522
alpha =   3.000000E-01
DIPOLC =       0.00000000      0.00000000     -0.13650107
ZVAL =  -1.365011E+00
deltaQ =   3.162447E-06
 Dsol_rc =      -0.01650463     -0.00953010     -0.06580477
 Dele =       0.00000000      0.00000000     -0.07863522
alpha =   3.000000E-01
DIPOLC =       0.00000000      0.00000000     -0.13650107
ZVAL =  -1.365011E+00
deltaQ =   3.162447E-06
 Dsol_rc =      -0.01650463     -0.00953010     -0.06580477
 Dele =       0.00000000      0.00000000     -0.07863522
alpha =   3.000000E-01
DIPOLC =       0.00000000      0.00000000     -0.13650107
ZVAL =  -1.365011E+00
deltaQ =   3.162447E-06
 Dsol_rc =      -0.01650463     -0.00953010     -0.06580477
 Dele =       0.00000000      0.00000000     -0.07863522
alpha =   3.000000E-01
DIPOLC =       0.00000000      0.00000000     -0.13650107
ZVAL =  -1.365011E+00
deltaQ =   3.162447E-06
 Dsol_rc =      -0.01650463     -0.00953010     -0.06580477
 Dele =       0.00000000      0.00000000     -0.07863522
alpha =   3.000000E-01
DIPOLC =       0.00000000      0.00000000     -0.13650107
ZVAL =  -1.365011E+00
deltaQ =   3.162447E-06
deltaQ =   3.162447E-06
 Dsol_rc =      -0.01650463     -0.00953010     -0.06580477
 Dele =       0.00000000      0.00000000     -0.07863522
alpha =   3.000000E-01
DIPOLC =       0.00000000      0.00000000     -0.13650107
ZVAL =  -1.365011E+00
deltaQ =   3.162447E-06
 Dsol_rc =      -0.01650463     -0.00953010     -0.06580477
 Dele =       0.00000000      0.00000000     -0.07863522
alpha =   3.000000E-01
DIPOLC =       0.00000000      0.00000000     -0.13650107
ZVAL =  -1.365011E+00
deltaQ =   3.162447E-06
 Dsol_rc =      -0.01650463     -0.00953010     -0.06580477
 Dele =       0.00000000      0.00000000     -0.07863522
alpha =   3.000000E-01
DIPOLC =       0.00000000      0.00000000     -0.13650107
ZVAL =  -1.365011E+00
deltaQ =   3.162447E-06
 Dsol_rc =      -0.01650463     -0.00953010     -0.06580477
 Dele =       0.00000000      0.00000000     -0.07863522
alpha =   3.000000E-01
DIPOLC =       0.00000000      0.00000000     -0.13650107
ZVAL =  -1.365011E+00
deltaQ =   3.162447E-06
 Dsol_rc =      -0.01650463     -0.00953010     -0.06580477
 Dele =       0.00000000      0.00000000     -0.07863522
alpha =   3.000000E-01
DIPOLC =       0.00000000      0.00000000     -0.13650107
ZVAL =  -1.365011E+00
deltaQ =   3.162447E-06
 Dsol_rc =      -0.01650463     -0.00953010     -0.06580477
 Dele =       0.00000000      0.00000000     -0.07863522
alpha =   3.000000E-01
DIPOLC =       0.00000000      0.00000000     -0.13650107
ZVAL =  -1.365011E+00
deltaQ =   3.162447E-06
 Dsol_rc =      -0.01650463     -0.00953010     -0.06580477
 Dele =       0.00000000      0.00000000     -0.07863522
alpha =   3.000000E-01
DIPOLC =       0.00000000      0.00000000     -0.13650107
ZVAL =  -1.365011E+00
deltaQ =   3.162447E-06
 Dsol_rc =      -0.01650463     -0.00953010     -0.06580477
 Dele =       0.00000000      0.00000000     -0.07863522
alpha =   3.000000E-01
DIPOLC =       0.00000000      0.00000000     -0.13650107
ZVAL =  -1.365011E+00
 Dsol_rc =      -0.01650463     -0.00953010     -0.06580477
 Dele =       0.00000000      0.00000000     -0.07863522
alpha =   3.000000E-01
DIPOLC =       0.00000000      0.00000000     -0.13650107
ZVAL =  -1.365011E+00
 Begin Solvation calculations
  rms_SCF =   1.103682094826673E-004 tol =   1.103682094826673E-005
 Begin minimization
 Creating dielectric and ionic cavities
  area:      239.953687762785     
  volume:    3289.51779835537     
  A_cav:    0.210919291543488     
  qion_max:     4.88323277548103     
  Solving nonlinear dielectric/ionic screening model
  Starting outer loop
        iter                  A_solv                     rms
 resid(G=0) =   1.892957731508549E-006
  NLPB:    0   0.257603385389753E+00   0.329866569383489E-02
   LPB:        0.257603385389753E+00   0.329866515069266E-02
   LPB:    0   0.257603385389774E+00   0.329958943680096E-02   0.228404E-07   0.000000E+00   0.828775E+02   0.189296E-05
   LPB:    1   0.257605538563883E+00   0.257727738390487E-01   0.924696E-01   0.000000E+00   0.457172E+02  -0.602690E-23
   LPB:    2   0.257611388217895E+00   0.179256636996764E-01   0.219897E-01   0.114243E+02   0.243633E+02   0.680602E-17
   LPB:    3   0.257622398406191E+00   0.119877903388045E-01   0.320789E-01   0.129022E+01   0.699476E+01  -0.288853E-15
   LPB:    4   0.257624213457745E+00   0.302089482469567E-02   0.104818E-01   0.504519E+00   0.667621E+02  -0.155408E-14
   LPB:    5   0.257624338553409E+00   0.424470406878905E-02   0.888299E-02   0.813262E-01   0.285945E+03  -0.168884E-14
   LPB:    6   0.257624450060723E+00   0.545145347482404E-03   0.897611E-02   0.882128E+00   0.406195E+03  -0.170009E-14
   LPB:    7   0.257624496704366E+00   0.249651251258942E-03   0.224989E-01   0.166885E+00   0.635045E+03  -0.171123E-14
    LS:    0   0.257624496628640E+00   0.211112388868173E-04   0.422226292263189E-04
 resid(G=0) =  -4.608403311734399E-009
  NLPB:    1   0.257624496628640E+00   0.249449785383154E-03
   LPB:        0.257624496628640E+00   0.249449785340585E-03
   LPB:    0   0.257624496628640E+00   0.249446286385713E-03  -0.556051E-10   0.000000E+00   0.828774E+02  -0.460840E-08
   LPB:    1   0.257624509989827E+00   0.298232392615999E-03   0.179884E-01   0.000000E+00   0.107959E+04  -0.261850E-24
   LPB:    2   0.257624519733045E+00   0.704799537950333E-03   0.287737E-01   0.455884E+00   0.392635E+03   0.372914E-17
   LPB:    3   0.257624523202818E+00   0.569585799649475E-03   0.784983E-02   0.130537E+01   0.303110E+03   0.253032E-17
   LPB:    4   0.257624527722974E+00   0.372116779066738E-03   0.142694E-01   0.716652E+00   0.398000E+03   0.116412E-17
   LPB:    5   0.257624530381060E+00   0.101791417785760E-03   0.130437E-01   0.643309E+00   0.303083E+03  -0.355766E-18
   LPB:    6   0.257624531762998E+00   0.146911629000786E-03   0.282548E-01   0.240009E+00   0.224887E+03   0.133788E-17
   LPB:    7   0.257624532640397E+00   0.256400348138017E-03   0.185335E-01   0.967927E+00   0.171956E+03   0.226857E-17
   LPB:    8   0.257624533344063E+00   0.213451719802480E-03   0.163145E-01   0.911077E+00   0.268048E+03   0.363529E-18
   LPB:    9   0.257624533823146E+00   0.484707240748563E-04   0.123143E-01   0.902003E+00   0.188337E+03   0.574925E-18
   LPB:   10   0.257624534194367E+00   0.205959827030097E-04   0.339306E-01   0.281215E+00   0.505595E+03   0.116771E-17
    LS:    0   0.257624534206651E+00   0.375780118133662E-07   0.751314554089682E-07
 resid(G=0) =  -3.167562045991446E-010
  NLPB:    2   0.257624534206651E+00   0.205234283826359E-04
   LPB:        0.257624534206651E+00   0.205234283801915E-04
   LPB:    0   0.257624534206651E+00   0.205231019697380E-04  -0.382199E-11   0.000000E+00   0.828774E+02  -0.316756E-09
   LPB:    1   0.257624534363007E+00   0.214451600798963E-04   0.212950E-01   0.000000E+00   0.102066E+04   0.152787E-25
   LPB:    2   0.257624534491629E+00   0.728911638153938E-04   0.324606E-01   0.539662E+00   0.815397E+03  -0.288896E-18
   LPB:    3   0.257624534577184E+00   0.660343968960551E-04   0.143033E-01   0.150957E+01   0.185122E+03  -0.529710E-18
   LPB:    4   0.257624534651066E+00   0.613917100475894E-04   0.159893E-01   0.772500E+00   0.473151E+03  -0.503532E-18
   LPB:    5   0.257624534709969E+00   0.745589829689598E-04   0.138200E-01   0.922386E+00   0.246871E+03  -0.403983E-18
   LPB:    6   0.257624534746025E+00   0.477249942215064E-04   0.846059E-02   0.999909E+00   0.220961E+03  -0.736336E-18
   LPB:    7   0.257624534807437E+00   0.332537282866814E-04   0.220985E-01   0.652092E+00   0.566227E+03  -0.972851E-18
   LPB:    8   0.257624534855527E+00   0.222499574277938E-04   0.179954E-01   0.961611E+00   0.321502E+03  -0.993580E-18
   LPB:    9   0.257624534888799E+00   0.169848260535489E-04   0.250981E-01   0.496078E+00   0.162929E+03  -0.897744E-18
   LPB:   10   0.257624534908025E+00   0.119030318987248E-04   0.234249E-01   0.619113E+00   0.183270E+03  -0.119233E-17
   LPB:   11   0.257624534929061E+00   0.132090133594536E-04   0.312632E-01   0.819829E+00   0.175556E+03  -0.132382E-17
   LPB:   12   0.257624534940594E+00   0.116924454798452E-04   0.183245E-01   0.935333E+00   0.288980E+03  -0.162019E-17
   LPB:   13   0.257624534945293E+00   0.500203690875605E-05   0.144598E-01   0.516308E+00   0.442453E+03  -0.178248E-17
   LPB:   14   0.257624534949015E+00   0.335280367908738E-05   0.293165E-01   0.390760E+00   0.391958E+03  -0.185053E-17
   LPB:   15   0.257624534952440E+00   0.400310316551281E-05   0.317634E-01   0.849028E+00   0.264868E+03  -0.195471E-17
   LPB:   16   0.257624534954398E+00   0.151479872910535E-04   0.239368E-01   0.759096E+00   0.184234E+03  -0.204500E-17
   LPB:   17   0.257624534955560E+00   0.765477129463511E-05   0.734972E-02   0.193108E+01   0.189804E+03  -0.215127E-17
   LPB:   18   0.257624534957426E+00   0.315989575091009E-05   0.230273E-01   0.512865E+00   0.164554E+03  -0.221044E-17
   LPB:   19   0.257624534959231E+00   0.314776467579060E-05   0.307115E-01   0.724873E+00   0.114771E+03  -0.230423E-17
   LPB:   20   0.257624534960261E+00   0.179382615461318E-05   0.258005E-01   0.679714E+00   0.154340E+03  -0.238760E-17
    LS:    0   0.257624534960285E+00   0.753633933037179E-09   0.150721876887477E-08
 resid(G=0) =  -1.944583383206577E-012
  NLPB:    3   0.257624534960285E+00   0.179278585076787E-05
  Finished solving NLPB equations
 End minimization
 Ecorr=   2061.80037647583     
 A_corr=  0.468543826503774     
 Ecorr_band=  -2061.33183264933     
 End Solvation calculations
RMM:  22    -0.194779031519E+03    0.10883E-02   -0.46020E-05  7966   0.567E-03    0.339E-01
deltaQ =   3.162366E-06
 Dsol_rc =      -0.01650944     -0.00952990     -0.07531959
 Dele =       0.00000000      0.00000000     -0.08587999
alpha =   6.000000E-01
DIPOLC =       0.00000000      0.00000000     -0.15132018
ZVAL =  -1.513202E+00
deltaQ =   3.162366E-06
deltaQ =   3.162366E-06
 Dsol_rc =      -0.01650944     -0.00952990     -0.07531959
 Dele =       0.00000000      0.00000000     -0.08587999
alpha =   6.000000E-01
DIPOLC =       0.00000000      0.00000000     -0.15132018
ZVAL =  -1.513202E+00
deltaQ =   3.162366E-06
 Dsol_rc =      -0.01650944     -0.00952990     -0.07531959
 Dele =       0.00000000      0.00000000     -0.08587999
alpha =   6.000000E-01
DIPOLC =       0.00000000      0.00000000     -0.15132018
ZVAL =  -1.513202E+00
deltaQ =   3.162366E-06
 Dsol_rc =      -0.01650944     -0.00952990     -0.07531959
 Dele =       0.00000000      0.00000000     -0.08587999
alpha =   6.000000E-01
DIPOLC =       0.00000000      0.00000000     -0.15132018
ZVAL =  -1.513202E+00
deltaQ =   3.162366E-06
 Dsol_rc =      -0.01650944     -0.00952990     -0.07531959
 Dele =       0.00000000      0.00000000     -0.08587999
alpha =   6.000000E-01
DIPOLC =       0.00000000      0.00000000     -0.15132018
ZVAL =  -1.513202E+00
deltaQ =   3.162366E-06
 Dsol_rc =      -0.01650944     -0.00952990     -0.07531959
 Dele =       0.00000000      0.00000000     -0.08587999
alpha =   6.000000E-01
DIPOLC =       0.00000000      0.00000000     -0.15132018
ZVAL =  -1.513202E+00
deltaQ =   3.162366E-06
 Dsol_rc =      -0.01650944     -0.00952990     -0.07531959
 Dele =       0.00000000      0.00000000     -0.08587999
alpha =   6.000000E-01
DIPOLC =       0.00000000      0.00000000     -0.15132018
ZVAL =  -1.513202E+00
deltaQ =   3.162366E-06
 Dsol_rc =      -0.01650944     -0.00952990     -0.07531959
 Dele =       0.00000000      0.00000000     -0.08587999
alpha =   6.000000E-01
DIPOLC =       0.00000000      0.00000000     -0.15132018
ZVAL =  -1.513202E+00
deltaQ =   3.162366E-06
 Dsol_rc =      -0.01650944     -0.00952990     -0.07531959
 Dele =       0.00000000      0.00000000     -0.08587999
alpha =   6.000000E-01
DIPOLC =       0.00000000      0.00000000     -0.15132018
ZVAL =  -1.513202E+00
deltaQ =   3.162366E-06
 Dsol_rc =      -0.01650944     -0.00952990     -0.07531959
 Dele =       0.00000000      0.00000000     -0.08587999
alpha =   6.000000E-01
DIPOLC =       0.00000000      0.00000000     -0.15132018
ZVAL =  -1.513202E+00
deltaQ =   3.162366E-06
 Dsol_rc =      -0.01650944     -0.00952990     -0.07531959
 Dele =       0.00000000      0.00000000     -0.08587999
alpha =   6.000000E-01
DIPOLC =       0.00000000      0.00000000     -0.15132018
ZVAL =  -1.513202E+00
deltaQ =   3.162366E-06
 Dsol_rc =      -0.01650944     -0.00952990     -0.07531959
 Dele =       0.00000000      0.00000000     -0.08587999
alpha =   6.000000E-01
DIPOLC =       0.00000000      0.00000000     -0.15132018
ZVAL =  -1.513202E+00
deltaQ =   3.162366E-06
 Dsol_rc =      -0.01650944     -0.00952990     -0.07531959
 Dele =       0.00000000      0.00000000     -0.08587999
alpha =   6.000000E-01
DIPOLC =       0.00000000      0.00000000     -0.15132018
ZVAL =  -1.513202E+00
deltaQ =   3.162366E-06
 Dsol_rc =      -0.01650944     -0.00952990     -0.07531959
 Dele =       0.00000000      0.00000000     -0.08587999
alpha =   6.000000E-01
DIPOLC =       0.00000000      0.00000000     -0.15132018
ZVAL =  -1.513202E+00
deltaQ =   3.162366E-06
 Dsol_rc =      -0.01650944     -0.00952990     -0.07531959
 Dele =       0.00000000      0.00000000     -0.08587999
alpha =   6.000000E-01
DIPOLC =       0.00000000      0.00000000     -0.15132018
ZVAL =  -1.513202E+00
 Dsol_rc =      -0.01650944     -0.00952990     -0.07531959
 Dele =       0.00000000      0.00000000     -0.08587999
alpha =   6.000000E-01
DIPOLC =       0.00000000      0.00000000     -0.15132018
ZVAL =  -1.513202E+00
 Begin Solvation calculations
  rms_SCF =   1.103682094826673E-004 tol =   1.103682094826673E-005
 Begin minimization
 Creating dielectric and ionic cavities
  area:      239.953700012672     
  volume:    3289.51601740116     
  A_cav:    0.210919302311139     
  qion_max:     4.88323815970153     
  Solving nonlinear dielectric/ionic screening model
  Starting outer loop
        iter                  A_solv                     rms
 resid(G=0) =   2.679136792554937E-007
  NLPB:    0   0.257306001837860E+00   0.669612681863686E-02
   LPB:        0.257306001837860E+00   0.669612681327722E-02
   LPB:    0   0.257306001837861E+00   0.669632876678955E-02   0.323265E-08   0.000000E+00   0.828774E+02   0.267914E-06
   LPB:    1   0.257475081624607E+00   0.172881476183050E+00   0.555697E+00   0.000000E+00   0.220645E+02   0.117625E-22
   LPB:    2   0.257570577218032E+00   0.394967204692149E-01   0.880681E-02   0.356378E+02   0.565946E+02   0.296910E-15
   LPB:    3   0.257606036860188E+00   0.425481416127028E-02   0.160373E-01   0.203910E+00   0.117454E+03   0.856829E-15
   LPB:    4   0.257607287823561E+00   0.552899541694743E-02   0.130242E-01   0.434400E-01   0.540701E+03   0.152787E-14
   LPB:    5   0.257607456365482E+00   0.393282508197481E-02   0.657108E-02   0.267040E+00   0.290205E+03   0.152892E-14
   LPB:    6   0.257607689274569E+00   0.130534175804322E-02   0.152684E-01   0.594733E+00   0.255513E+03   0.153058E-14
   LPB:    7   0.257607760115123E+00   0.968772253758140E-03   0.193327E-01   0.240214E+00   0.175217E+03   0.153783E-14
   LPB:    8   0.257607803689290E+00   0.294395877116850E-03   0.199943E-01   0.594747E+00   0.504059E+03   0.155630E-14
    LS:    0   0.257607803731638E+00   0.301801893777820E-03   0.603603702859988E-03
 resid(G=0) =  -7.269362958806092E-009
  NLPB:    1   0.257607803731638E+00   0.294284039097323E-03
   LPB:        0.257607803731638E+00   0.294284039007539E-03
   LPB:    0   0.257607803731638E+00   0.294284305920867E-03  -0.877120E-10   0.000000E+00   0.828776E+02  -0.726936E-08
   LPB:    1   0.257607818668798E+00   0.440681696390433E-03   0.179832E-01   0.000000E+00   0.106114E+04  -0.390917E-24
   LPB:    2   0.257607828614843E+00   0.420670858540935E-03   0.200194E-01   0.598134E+00   0.330460E+03   0.527436E-18
   LPB:    3   0.257607838923947E+00   0.399933150844811E-03   0.243655E-01   0.851620E+00   0.550112E+03  -0.508542E-17
   LPB:    4   0.257607844001820E+00   0.782786165374358E-03   0.150179E-01   0.799148E+00   0.257664E+03  -0.716659E-17
   LPB:    5   0.257607847488789E+00   0.464214358758589E-03   0.831384E-02   0.124043E+01   0.319576E+03  -0.570358E-17
   LPB:    6   0.257607851584205E+00   0.202825893911426E-03   0.167804E-01   0.581901E+00   0.129521E+03  -0.553464E-17
   LPB:    7   0.257607853443983E+00   0.904184111378941E-04   0.203772E-01   0.373956E+00   0.232548E+03  -0.803846E-17
   LPB:    8   0.257607854650488E+00   0.235976107739559E-03   0.322737E-01   0.409604E+00   0.155384E+03  -0.424815E-17
   LPB:    9   0.257607855370513E+00   0.229692117141785E-03   0.171047E-01   0.112604E+01   0.320910E+03  -0.146051E-17
   LPB:   10   0.257607856226762E+00   0.469269232706510E-04   0.151650E-01   0.134129E+01   0.681597E+03  -0.848656E-18
   LPB:   11   0.257607856718562E+00   0.877338378245892E-04   0.267501E-01   0.325617E+00   0.132755E+04   0.536473E-18
   LPB:   12   0.257607856982217E+00   0.446494910213155E-04   0.154656E-01   0.927267E+00   0.407432E+03   0.157177E-17
   LPB:   13   0.257607857193547E+00   0.192780539086544E-04   0.232743E-01   0.532619E+00   0.472652E+03   0.213157E-17
    LS:    0   0.257607857188912E+00   0.534572740518158E-07   0.106923817743272E-06
 resid(G=0) =  -3.117563568411086E-010
  NLPB:    2   0.257607857188912E+00   0.191361922492724E-04
   LPB:        0.257607857188912E+00   0.191361922467329E-04
   LPB:    0   0.257607857188912E+00   0.191358437268127E-04  -0.376165E-11   0.000000E+00   0.828776E+02  -0.311756E-09
   LPB:    1   0.257607857293511E+00   0.297442238134675E-04   0.222404E-01   0.000000E+00   0.771001E+03  -0.210547E-25
   LPB:    2   0.257607857371222E+00   0.790295800321946E-04   0.229723E-01   0.719274E+00   0.651048E+03  -0.232271E-19
   LPB:    3   0.257607857428074E+00   0.779194342118578E-04   0.101245E-01   0.165995E+01   0.392550E+03  -0.384172E-18
   LPB:    4   0.257607857482845E+00   0.288438435040020E-04   0.109103E-01   0.894010E+00   0.328448E+03  -0.695432E-18
   LPB:    5   0.257607857560075E+00   0.224328382468011E-04   0.284155E-01   0.541393E+00   0.297927E+03  -0.894843E-18
   LPB:    6   0.257607857595888E+00   0.575950953123832E-04   0.184418E-01   0.714515E+00   0.463243E+03  -0.113569E-17
   LPB:    7   0.257607857622459E+00   0.314273374109628E-04   0.128272E-01   0.106669E+01   0.195922E+03  -0.132794E-17
   LPB:    8   0.257607857657159E+00   0.179543048230135E-04   0.260539E-01   0.642944E+00   0.926186E+03  -0.159403E-17
   LPB:    9   0.257607857691121E+00   0.128321284338951E-04   0.293120E-01   0.869955E+00   0.239213E+03  -0.186907E-17
   LPB:   10   0.257607857708468E+00   0.128226729519816E-04   0.259703E-01   0.576514E+00   0.291845E+03  -0.182673E-17
   LPB:   11   0.257607857718923E+00   0.114653468473177E-04   0.203605E-01   0.768696E+00   0.407924E+03  -0.178279E-17
   LPB:   12   0.257607857725656E+00   0.811740000962569E-05   0.189356E-01   0.692552E+00   0.399224E+03  -0.150026E-17
   LPB:   13   0.257607857731232E+00   0.852317212657494E-05   0.248082E-01   0.632003E+00   0.297242E+03  -0.132768E-17
   LPB:   14   0.257607857738155E+00   0.962180980887000E-05   0.284788E-01   0.108168E+01   0.195409E+03  -0.127919E-17
   LPB:   15   0.257607857740839E+00   0.159170555060626E-04   0.136102E-01   0.811116E+00   0.260520E+03  -0.118578E-17
   LPB:   16   0.257607857741808E+00   0.469231507384277E-05   0.608196E-02   0.808193E+00   0.269686E+03  -0.127102E-17
   LPB:   17   0.257607857743183E+00   0.197479558264227E-05   0.286747E-01   0.301030E+00   0.981303E+03  -0.130592E-17
   LPB:   18   0.257607857743913E+00   0.199411106658313E-05   0.288969E-01   0.526539E+00   0.448299E+03  -0.137096E-17
   LPB:   19   0.257607857744538E+00   0.162196336802447E-05   0.273512E-01   0.904216E+00   0.531503E+03  -0.143531E-17
    LS:    0   0.257607857744602E+00   0.555690105041862E-09   0.111125213294202E-08
 resid(G=0) =  -1.195529786279792E-012
  NLPB:    3   0.257607857744602E+00   0.162186866758968E-05
  Finished solving NLPB equations
 End minimization
 Ecorr=   2062.47932820331     
 A_corr=  0.468527160055741     
 Ecorr_band=  -2062.01080104325     
 End Solvation calculations
RMM:  23    -0.194777569710E+03    0.14618E-02   -0.88302E-05  8833   0.815E-03    0.308E-01
deltaQ =   3.162740E-06
 Dsol_rc =      -0.01653653     -0.00953283     -0.06489001
 Dele =       0.00000000      0.00000000     -0.08427447
alpha =   6.000000E-01
DIPOLC =       0.00000000      0.00000000     -0.15002676
ZVAL =  -1.500268E+00
deltaQ =   3.162740E-06
deltaQ =   3.162740E-06
 Dsol_rc =      -0.01653653     -0.00953283     -0.06489001
 Dele =       0.00000000      0.00000000     -0.08427447
alpha =   6.000000E-01
DIPOLC =       0.00000000      0.00000000     -0.15002676
ZVAL =  -1.500268E+00
deltaQ =   3.162740E-06
 Dsol_rc =      -0.01653653     -0.00953283     -0.06489001
 Dele =       0.00000000      0.00000000     -0.08427447
alpha =   6.000000E-01
DIPOLC =       0.00000000      0.00000000     -0.15002676
ZVAL =  -1.500268E+00
deltaQ =   3.162740E-06
 Dsol_rc =      -0.01653653     -0.00953283     -0.06489001
 Dele =       0.00000000      0.00000000     -0.08427447
alpha =   6.000000E-01
DIPOLC =       0.00000000      0.00000000     -0.15002676
ZVAL =  -1.500268E+00
deltaQ =   3.162740E-06
 Dsol_rc =      -0.01653653     -0.00953283     -0.06489001
 Dele =       0.00000000      0.00000000     -0.08427447
alpha =   6.000000E-01
DIPOLC =       0.00000000      0.00000000     -0.15002676
ZVAL =  -1.500268E+00
deltaQ =   3.162740E-06
 Dsol_rc =      -0.01653653     -0.00953283     -0.06489001
 Dele =       0.00000000      0.00000000     -0.08427447
alpha =   6.000000E-01
DIPOLC =       0.00000000      0.00000000     -0.15002676
ZVAL =  -1.500268E+00
deltaQ =   3.162740E-06
 Dsol_rc =      -0.01653653     -0.00953283     -0.06489001
 Dele =       0.00000000      0.00000000     -0.08427447
alpha =   6.000000E-01
DIPOLC =       0.00000000      0.00000000     -0.15002676
ZVAL =  -1.500268E+00
deltaQ =   3.162740E-06
 Dsol_rc =      -0.01653653     -0.00953283     -0.06489001
 Dele =       0.00000000      0.00000000     -0.08427447
alpha =   6.000000E-01
DIPOLC =       0.00000000      0.00000000     -0.15002676
ZVAL =  -1.500268E+00
deltaQ =   3.162740E-06
 Dsol_rc =      -0.01653653     -0.00953283     -0.06489001
 Dele =       0.00000000      0.00000000     -0.08427447
alpha =   6.000000E-01
DIPOLC =       0.00000000      0.00000000     -0.15002676
ZVAL =  -1.500268E+00
deltaQ =   3.162740E-06
 Dsol_rc =      -0.01653653     -0.00953283     -0.06489001
 Dele =       0.00000000      0.00000000     -0.08427447
alpha =   6.000000E-01
DIPOLC =       0.00000000      0.00000000     -0.15002676
ZVAL =  -1.500268E+00
deltaQ =   3.162740E-06
 Dsol_rc =      -0.01653653     -0.00953283     -0.06489001
 Dele =       0.00000000      0.00000000     -0.08427447
alpha =   6.000000E-01
DIPOLC =       0.00000000      0.00000000     -0.15002676
ZVAL =  -1.500268E+00
deltaQ =   3.162740E-06
 Dsol_rc =      -0.01653653     -0.00953283     -0.06489001
 Dele =       0.00000000      0.00000000     -0.08427447
alpha =   6.000000E-01
DIPOLC =       0.00000000      0.00000000     -0.15002676
ZVAL =  -1.500268E+00
deltaQ =   3.162740E-06
 Dsol_rc =      -0.01653653     -0.00953283     -0.06489001
 Dele =       0.00000000      0.00000000     -0.08427447
alpha =   6.000000E-01
DIPOLC =       0.00000000      0.00000000     -0.15002676
ZVAL =  -1.500268E+00
deltaQ =   3.162740E-06
 Dsol_rc =      -0.01653653     -0.00953283     -0.06489001
 Dele =       0.00000000      0.00000000     -0.08427447
alpha =   6.000000E-01
DIPOLC =       0.00000000      0.00000000     -0.15002676
ZVAL =  -1.500268E+00
deltaQ =   3.162740E-06
 Dsol_rc =      -0.01653653     -0.00953283     -0.06489001
 Dele =       0.00000000      0.00000000     -0.08427447
alpha =   6.000000E-01
DIPOLC =       0.00000000      0.00000000     -0.15002676
ZVAL =  -1.500268E+00
 Dsol_rc =      -0.01653653     -0.00953283     -0.06489001
 Dele =       0.00000000      0.00000000     -0.08427447
alpha =   6.000000E-01
DIPOLC =       0.00000000      0.00000000     -0.15002676
ZVAL =  -1.500268E+00
 Begin Solvation calculations
  rms_SCF =   1.103682094826673E-004 tol =   1.103682094826673E-005
 Begin minimization
 Creating dielectric and ionic cavities
  area:      239.953679471457     
  volume:    3289.52003422630     
  A_cav:    0.210919284255411     
  qion_max:     4.88322729460001     
  Solving nonlinear dielectric/ionic screening model
  Starting outer loop
        iter                  A_solv                     rms
 resid(G=0) =  -5.373953586296221E-007
  NLPB:    0   0.257701412030571E+00   0.106940282771847E-02
   LPB:        0.257701412030571E+00   0.106940269269274E-02
   LPB:    0   0.257701412030573E+00   0.107023395330002E-02  -0.648422E-08   0.000000E+00   0.828774E+02  -0.537395E-06
   LPB:    1   0.257703503516108E+00   0.558548803833293E-02   0.752916E+00   0.000000E+00   0.424422E+01  -0.604922E-23
   LPB:    2   0.257704089337017E+00   0.293951018153331E-02   0.119213E-01   0.176903E+02   0.165972E+02   0.103299E-16
   LPB:    3   0.257704161026279E+00   0.262233942422459E-02   0.111929E-01   0.130337E+00   0.295473E+02  -0.125034E-16
   LPB:    4   0.257704176641097E+00   0.325321716891337E-03   0.473650E-02   0.514718E+00   0.675302E+02   0.788320E-17
   LPB:    5   0.257704177842199E+00   0.290261473731593E-03   0.115163E-01   0.316366E-01   0.138556E+03   0.160114E-16
   LPB:    6   0.257704178444359E+00   0.459419545298512E-04   0.100288E-01   0.575696E+00   0.372741E+03   0.176804E-16
    LS:    0   0.257704178444440E+00   0.276641386842691E-05   0.553282757524891E-05
 resid(G=0) =  -1.298944285466064E-011
  NLPB:    1   0.257704178444440E+00   0.459439658018095E-04
   LPB:        0.257704178444440E+00   0.459439658018077E-04
   LPB:    0   0.257704178444440E+00   0.459439770696141E-04  -0.156731E-12   0.000000E+00   0.828774E+02  -0.129894E-10
   LPB:    1   0.257704178615057E+00   0.802364189015481E-04   0.144236E-01   0.000000E+00   0.577088E+03  -0.978953E-27
   LPB:    2   0.257704178701310E+00   0.898659857395499E-04   0.121315E-01   0.601047E+00   0.296314E+03  -0.214347E-18
   LPB:    3   0.257704178798982E+00   0.599352163466683E-04   0.189688E-01   0.724222E+00   0.127905E+03  -0.640012E-18
   LPB:    4   0.257704178821652E+00   0.436119756912005E-04   0.718490E-02   0.612776E+00   0.198205E+03  -0.258633E-18
   LPB:    5   0.257704178845902E+00   0.215637435377778E-04   0.128843E-01   0.596515E+00   0.392622E+03  -0.110671E-18
   LPB:    6   0.257704178862699E+00   0.169838169353850E-04   0.172201E-01   0.518257E+00   0.311866E+03   0.540348E-19
   LPB:    7   0.257704178877796E+00   0.673920762567912E-05   0.216374E-01   0.715290E+00   0.647037E+03   0.195222E-18
   LPB:    8   0.257704178884447E+00   0.910284628861654E-05   0.235668E-01   0.404492E+00   0.499694E+03   0.378998E-18
   LPB:    9   0.257704178889198E+00   0.995762211588569E-05   0.225999E-01   0.744933E+00   0.102480E+03   0.501837E-18
   LPB:   10   0.257704178893287E+00   0.371068615744574E-05   0.275914E-01   0.704863E+00   0.171755E+03   0.527863E-18
    LS:    0   0.257704178893266E+00   0.448826142918080E-09   0.897694527409623E-09
 resid(G=0) =  -4.679867604551191E-012
  NLPB:    2   0.257704178893266E+00   0.370944140885986E-05
  Finished solving NLPB equations
 End minimization
 Ecorr=   2063.08992109327     
 A_corr=  0.468623463148677     
 Ecorr_band=  -2062.62129763012     
 End Solvation calculations
RMM:  24    -0.194778013476E+03   -0.44377E-03   -0.62201E-06  6823   0.274E-03    0.318E-01
deltaQ =   3.163693E-06
 Dsol_rc =      -0.01657223     -0.00953180     -0.06446830
 Dele =       0.00000000      0.00000000     -0.08229104
alpha =   6.000000E-01
DIPOLC =       0.00000000      0.00000000     -0.14806631
ZVAL =  -1.480663E+00
deltaQ =   3.163693E-06
 Dsol_rc =      -0.01657223     -0.00953180     -0.06446830
 Dele =       0.00000000      0.00000000     -0.08229104
alpha =   6.000000E-01
DIPOLC =       0.00000000      0.00000000     -0.14806631
ZVAL =  -1.480663E+00
deltaQ =   3.163693E-06
deltaQ =   3.163693E-06
 Dsol_rc =      -0.01657223     -0.00953180     -0.06446830
 Dele =       0.00000000      0.00000000     -0.08229104
alpha =   6.000000E-01
DIPOLC =       0.00000000      0.00000000     -0.14806631
ZVAL =  -1.480663E+00
deltaQ =   3.163693E-06
 Dsol_rc =      -0.01657223     -0.00953180     -0.06446830
 Dele =       0.00000000      0.00000000     -0.08229104
alpha =   6.000000E-01
DIPOLC =       0.00000000      0.00000000     -0.14806631
ZVAL =  -1.480663E+00
deltaQ =   3.163693E-06
 Dsol_rc =      -0.01657223     -0.00953180     -0.06446830
 Dele =       0.00000000      0.00000000     -0.08229104
alpha =   6.000000E-01
DIPOLC =       0.00000000      0.00000000     -0.14806631
ZVAL =  -1.480663E+00
deltaQ =   3.163693E-06
 Dsol_rc =      -0.01657223     -0.00953180     -0.06446830
 Dele =       0.00000000      0.00000000     -0.08229104
alpha =   6.000000E-01
DIPOLC =       0.00000000      0.00000000     -0.14806631
ZVAL =  -1.480663E+00
deltaQ =   3.163693E-06
 Dsol_rc =      -0.01657223     -0.00953180     -0.06446830
 Dele =       0.00000000      0.00000000     -0.08229104
alpha =   6.000000E-01
DIPOLC =       0.00000000      0.00000000     -0.14806631
ZVAL =  -1.480663E+00
deltaQ =   3.163693E-06
 Dsol_rc =      -0.01657223     -0.00953180     -0.06446830
 Dele =       0.00000000      0.00000000     -0.08229104
alpha =   6.000000E-01
DIPOLC =       0.00000000      0.00000000     -0.14806631
ZVAL =  -1.480663E+00
deltaQ =   3.163693E-06
 Dsol_rc =      -0.01657223     -0.00953180     -0.06446830
 Dele =       0.00000000      0.00000000     -0.08229104
alpha =   6.000000E-01
DIPOLC =       0.00000000      0.00000000     -0.14806631
ZVAL =  -1.480663E+00
deltaQ =   3.163693E-06
 Dsol_rc =      -0.01657223     -0.00953180     -0.06446830
 Dele =       0.00000000      0.00000000     -0.08229104
alpha =   6.000000E-01
DIPOLC =       0.00000000      0.00000000     -0.14806631
ZVAL =  -1.480663E+00
deltaQ =   3.163693E-06
 Dsol_rc =      -0.01657223     -0.00953180     -0.06446830
 Dele =       0.00000000      0.00000000     -0.08229104
alpha =   6.000000E-01
DIPOLC =       0.00000000      0.00000000     -0.14806631
ZVAL =  -1.480663E+00
deltaQ =   3.163693E-06
 Dsol_rc =      -0.01657223     -0.00953180     -0.06446830
 Dele =       0.00000000      0.00000000     -0.08229104
alpha =   6.000000E-01
DIPOLC =       0.00000000      0.00000000     -0.14806631
ZVAL =  -1.480663E+00
deltaQ =   3.163693E-06
 Dsol_rc =      -0.01657223     -0.00953180     -0.06446830
 Dele =       0.00000000      0.00000000     -0.08229104
alpha =   6.000000E-01
DIPOLC =       0.00000000      0.00000000     -0.14806631
ZVAL =  -1.480663E+00
deltaQ =   3.163693E-06
 Dsol_rc =      -0.01657223     -0.00953180     -0.06446830
 Dele =       0.00000000      0.00000000     -0.08229104
alpha =   6.000000E-01
DIPOLC =       0.00000000      0.00000000     -0.14806631
ZVAL =  -1.480663E+00
deltaQ =   3.163693E-06
 Dsol_rc =      -0.01657223     -0.00953180     -0.06446830
 Dele =       0.00000000      0.00000000     -0.08229104
alpha =   6.000000E-01
DIPOLC =       0.00000000      0.00000000     -0.14806631
ZVAL =  -1.480663E+00
 Dsol_rc =      -0.01657223     -0.00953180     -0.06446830
 Dele =       0.00000000      0.00000000     -0.08229104
alpha =   6.000000E-01
DIPOLC =       0.00000000      0.00000000     -0.14806631
ZVAL =  -1.480663E+00
 Begin Solvation calculations
  rms_SCF =   1.103682094826673E-004 tol =   1.103682094826673E-005
 Begin minimization
 Creating dielectric and ionic cavities
  area:      239.953685748612     
  volume:    3289.52691501458     
  A_cav:    0.210919289773030     
  qion_max:     4.88320834253493     
  Solving nonlinear dielectric/ionic screening model
  Starting outer loop
        iter                  A_solv                     rms
 resid(G=0) =  -9.351935902901509E-007
  NLPB:    0   0.257871741118548E+00   0.167668034720272E-02
   LPB:        0.257871741118548E+00   0.167668008639358E-02
   LPB:    0   0.257871741118554E+00   0.167797988274195E-02  -0.112841E-07   0.000000E+00   0.828770E+02  -0.935194E-06
   LPB:    1   0.257874312886896E+00   0.227791910901905E-01   0.377431E+00   0.000000E+00   0.940844E+01  -0.165253E-22
   LPB:    2   0.257876518201004E+00   0.838789859607110E-02   0.117002E-01   0.276620E+02   0.927835E+01  -0.356660E-15
   LPB:    3   0.257878332593629E+00   0.160909114146944E-02   0.176172E-01   0.546407E+00   0.736996E+01  -0.574503E-15
   LPB:    4   0.257878394002523E+00   0.176901411537980E-02   0.101185E-01   0.589280E-01   0.919113E+02  -0.694147E-15
   LPB:    5   0.257878406492981E+00   0.835251132122020E-03   0.590715E-02   0.348406E+00   0.281991E+03  -0.694563E-15
   LPB:    6   0.257878415831994E+00   0.285571632502978E-03   0.129909E-01   0.339986E+00   0.166768E+03  -0.697425E-15
   LPB:    7   0.257878419372747E+00   0.844541050946753E-04   0.204337E-01   0.241038E+00   0.195757E+03  -0.705787E-15
    LS:    0   0.257878419373872E+00   0.667825532346678E-05   0.133565083966763E-04
 resid(G=0) =  -2.214919081477973E-010
  NLPB:    1   0.257878419373872E+00   0.844344479876237E-04
   LPB:        0.257878419373872E+00   0.844344479873331E-04
   LPB:    0   0.257878419373872E+00   0.844342271280097E-04  -0.267254E-11   0.000000E+00   0.828771E+02  -0.221492E-09
   LPB:    1   0.257878420412756E+00   0.102049824681881E-03   0.178907E-01   0.000000E+00   0.564167E+03   0.708161E-26
   LPB:    2   0.257878421163958E+00   0.142202273306049E-03   0.243527E-01   0.531213E+00   0.455344E+03  -0.160322E-17
   LPB:    3   0.257878421593810E+00   0.195349681214421E-03   0.135711E-01   0.102682E+01   0.360253E+03  -0.165694E-17
   LPB:    4   0.257878421831210E+00   0.120590197604537E-03   0.807043E-02   0.928714E+00   0.260353E+03  -0.190729E-17
   LPB:    5   0.257878422085219E+00   0.428410355283633E-04   0.145234E-01   0.594562E+00   0.329224E+03  -0.224118E-17
   LPB:    6   0.257878422170824E+00   0.401057128120029E-04   0.189378E-01   0.258459E+00   0.205037E+03  -0.262575E-17
   LPB:    7   0.257878422250130E+00   0.674218722442512E-04   0.235696E-01   0.744358E+00   0.162818E+03  -0.195795E-17
   LPB:    8   0.257878422292431E+00   0.479683099166893E-04   0.143754E-01   0.874541E+00   0.280601E+03  -0.140318E-17
   LPB:    9   0.257878422337750E+00   0.124790215357082E-04   0.156084E-01   0.986709E+00   0.124569E+04  -0.117813E-17
   LPB:   10   0.257878422362027E+00   0.144198727406166E-04   0.291253E-01   0.287071E+00   0.280216E+03  -0.785128E-18
   LPB:   11   0.257878422380162E+00   0.130775991705124E-04   0.298290E-01   0.729389E+00   0.148593E+03  -0.780309E-18
   LPB:   12   0.257878422390386E+00   0.132999665596405E-04   0.186226E-01   0.903129E+00   0.432598E+03  -0.372038E-18
   LPB:   13   0.257878422399215E+00   0.534937055237432E-05   0.203916E-01   0.788494E+00   0.326262E+03  -0.175760E-18
    LS:    0   0.257878422398961E+00   0.302508945670965E-08   0.605068541683921E-08
 resid(G=0) =  -3.191837072424875E-011
  NLPB:    2   0.257878422398961E+00   0.535489726971023E-05
  Finished solving NLPB equations
 End minimization
 Ecorr=   2064.38733618463     
 A_corr=  0.468797712171992     
 Ecorr_band=  -2063.91853847246     
 End Solvation calculations
RMM:  25    -0.194778819140E+03   -0.80566E-03   -0.16716E-05  7442   0.350E-03    0.334E-01
deltaQ =   3.163397E-06
 Dsol_rc =      -0.01657293     -0.00953027     -0.06209089
 Dele =       0.00000000      0.00000000     -0.07978580
alpha =   6.000000E-01
DIPOLC =       0.00000000      0.00000000     -0.14435254
ZVAL =  -1.443525E+00
deltaQ =   3.163397E-06
deltaQ =   3.163397E-06
 Dsol_rc =      -0.01657293     -0.00953027     -0.06209089
 Dele =       0.00000000      0.00000000     -0.07978580
alpha =   6.000000E-01
DIPOLC =       0.00000000      0.00000000     -0.14435254
ZVAL =  -1.443525E+00
deltaQ =   3.163397E-06
 Dsol_rc =      -0.01657293     -0.00953027     -0.06209089
 Dele =       0.00000000      0.00000000     -0.07978580
alpha =   6.000000E-01
DIPOLC =       0.00000000      0.00000000     -0.14435254
ZVAL =  -1.443525E+00
deltaQ =   3.163397E-06
 Dsol_rc =      -0.01657293     -0.00953027     -0.06209089
 Dele =       0.00000000      0.00000000     -0.07978580
alpha =   6.000000E-01
DIPOLC =       0.00000000      0.00000000     -0.14435254
ZVAL =  -1.443525E+00
deltaQ =   3.163397E-06
 Dsol_rc =      -0.01657293     -0.00953027     -0.06209089
 Dele =       0.00000000      0.00000000     -0.07978580
alpha =   6.000000E-01
DIPOLC =       0.00000000      0.00000000     -0.14435254
ZVAL =  -1.443525E+00
deltaQ =   3.163397E-06
 Dsol_rc =      -0.01657293     -0.00953027     -0.06209089
 Dele =       0.00000000      0.00000000     -0.07978580
alpha =   6.000000E-01
DIPOLC =       0.00000000      0.00000000     -0.14435254
ZVAL =  -1.443525E+00
deltaQ =   3.163397E-06
 Dsol_rc =      -0.01657293     -0.00953027     -0.06209089
 Dele =       0.00000000      0.00000000     -0.07978580
alpha =   6.000000E-01
DIPOLC =       0.00000000      0.00000000     -0.14435254
ZVAL =  -1.443525E+00
deltaQ =   3.163397E-06
 Dsol_rc =      -0.01657293     -0.00953027     -0.06209089
 Dele =       0.00000000      0.00000000     -0.07978580
alpha =   6.000000E-01
DIPOLC =       0.00000000      0.00000000     -0.14435254
ZVAL =  -1.443525E+00
deltaQ =   3.163397E-06
 Dsol_rc =      -0.01657293     -0.00953027     -0.06209089
 Dele =       0.00000000      0.00000000     -0.07978580
alpha =   6.000000E-01
DIPOLC =       0.00000000      0.00000000     -0.14435254
ZVAL =  -1.443525E+00
deltaQ =   3.163397E-06
 Dsol_rc =      -0.01657293     -0.00953027     -0.06209089
 Dele =       0.00000000      0.00000000     -0.07978580
alpha =   6.000000E-01
DIPOLC =       0.00000000      0.00000000     -0.14435254
ZVAL =  -1.443525E+00
deltaQ =   3.163397E-06
 Dsol_rc =      -0.01657293     -0.00953027     -0.06209089
 Dele =       0.00000000      0.00000000     -0.07978580
alpha =   6.000000E-01
DIPOLC =       0.00000000      0.00000000     -0.14435254
ZVAL =  -1.443525E+00
deltaQ =   3.163397E-06
 Dsol_rc =      -0.01657293     -0.00953027     -0.06209089
 Dele =       0.00000000      0.00000000     -0.07978580
alpha =   6.000000E-01
DIPOLC =       0.00000000      0.00000000     -0.14435254
ZVAL =  -1.443525E+00
deltaQ =   3.163397E-06
 Dsol_rc =      -0.01657293     -0.00953027     -0.06209089
 Dele =       0.00000000      0.00000000     -0.07978580
alpha =   6.000000E-01
DIPOLC =       0.00000000      0.00000000     -0.14435254
ZVAL =  -1.443525E+00
deltaQ =   3.163397E-06
 Dsol_rc =      -0.01657293     -0.00953027     -0.06209089
 Dele =       0.00000000      0.00000000     -0.07978580
alpha =   6.000000E-01
DIPOLC =       0.00000000      0.00000000     -0.14435254
ZVAL =  -1.443525E+00
deltaQ =   3.163397E-06
 Dsol_rc =      -0.01657293     -0.00953027     -0.06209089
 Dele =       0.00000000      0.00000000     -0.07978580
alpha =   6.000000E-01
DIPOLC =       0.00000000      0.00000000     -0.14435254
ZVAL =  -1.443525E+00
 Dsol_rc =      -0.01657293     -0.00953027     -0.06209089
 Dele =       0.00000000      0.00000000     -0.07978580
alpha =   6.000000E-01
DIPOLC =       0.00000000      0.00000000     -0.14435254
ZVAL =  -1.443525E+00
 Begin Solvation calculations
  rms_SCF =   1.103682094826673E-004 tol =   1.103682094826673E-005
 Begin minimization
 Creating dielectric and ionic cavities
  area:      239.953694088453     
  volume:    3289.53126633514     
  A_cav:    0.210919297103750     
  qion_max:     4.88319606452221     
  Solving nonlinear dielectric/ionic screening model
  Starting outer loop
        iter                  A_solv                     rms
 resid(G=0) =  -6.040423796427330E-007
  NLPB:    0   0.257928274102912E+00   0.175213861952726E-02
   LPB:        0.257928274102912E+00   0.175213851540672E-02
   LPB:    0   0.257928274102914E+00   0.175277546867119E-02  -0.728843E-08   0.000000E+00   0.828769E+02  -0.604042E-06
   LPB:    1   0.257943535068059E+00   0.378968188356708E-01   0.780328E+00   0.000000E+00   0.134828E+02  -0.258720E-22
   LPB:    2   0.257947112967806E+00   0.563761955097545E-02   0.667964E-02   0.273887E+02   0.581408E+02  -0.488312E-15
   LPB:    3   0.257947735646723E+00   0.865212425963574E-03   0.140091E-01   0.829813E-01   0.138773E+03  -0.635744E-15
   LPB:    4   0.257947770353649E+00   0.558006531329348E-03   0.128224E-01   0.608962E-01   0.388978E+03  -0.719056E-15
   LPB:    5   0.257947774492272E+00   0.745074928780423E-03   0.932796E-02   0.163917E+00   0.285839E+03  -0.717659E-15
   LPB:    6   0.257947778397691E+00   0.315879641949638E-03   0.966387E-02   0.910851E+00   0.397504E+03  -0.718752E-15
   LPB:    7   0.257947780846530E+00   0.106795374267991E-03   0.157385E-01   0.385017E+00   0.212872E+03  -0.720080E-15
    LS:    0   0.257947780846650E+00   0.195067437383512E-04   0.390134872371406E-04
 resid(G=0) =  -1.581584446741502E-010
  NLPB:    1   0.257947780846650E+00   0.106778432095007E-03
   LPB:        0.257947780846650E+00   0.106778432094890E-03
   LPB:    0   0.257947780846650E+00   0.106778289278563E-03  -0.190836E-11   0.000000E+00   0.828768E+02  -0.158158E-09
   LPB:    1   0.257947781668620E+00   0.121727742737031E-03   0.148040E-01   0.000000E+00   0.462818E+03  -0.686761E-26
   LPB:    2   0.257947782271934E+00   0.187236123552683E-03   0.177257E-01   0.613002E+00   0.696531E+03  -0.244058E-18
   LPB:    3   0.257947782565876E+00   0.178241279029832E-03   0.892860E-02   0.967250E+00   0.330400E+03  -0.754369E-19
   LPB:    4   0.257947783033117E+00   0.612717239835675E-04   0.154063E-01   0.921222E+00   0.499485E+03   0.415778E-19
   LPB:    5   0.257947783342163E+00   0.434299525135104E-04   0.216251E-01   0.471217E+00   0.344011E+03   0.201987E-18
   LPB:    6   0.257947783458684E+00   0.441236366008497E-04   0.202532E-01   0.402576E+00   0.212569E+03  -0.143345E-18
   LPB:    7   0.257947783533821E+00   0.843755607704559E-04   0.197184E-01   0.662320E+00   0.122334E+03   0.328442E-18
   LPB:    8   0.257947783593828E+00   0.524544108823724E-04   0.150216E-01   0.104834E+01   0.276623E+03  -0.334948E-19
   LPB:    9   0.257947783670399E+00   0.173279570100985E-04   0.195893E-01   0.978498E+00   0.421645E+03  -0.746164E-19
   LPB:   10   0.257947783714955E+00   0.169089827852616E-04   0.288145E-01   0.395593E+00   0.627368E+03   0.617059E-18
   LPB:   11   0.257947783730154E+00   0.188629743543919E-04   0.178113E-01   0.551856E+00   0.274899E+03   0.711282E-18
   LPB:   12   0.257947783746929E+00   0.138753903230911E-04   0.224465E-01   0.875809E+00   0.456100E+03   0.777138E-18
   LPB:   13   0.257947783758009E+00   0.386247340154126E-04   0.200122E-01   0.740806E+00   0.511594E+03   0.943522E-18
   LPB:   14   0.257947783764859E+00   0.134345699807713E-04   0.712295E-02   0.173714E+01   0.362507E+03   0.106511E-17
   LPB:   15   0.257947783770951E+00   0.596177464304369E-05   0.180651E-01   0.350618E+00   0.631868E+03   0.114026E-17
    LS:    0   0.257947783771162E+00   0.292451241001856E-08   0.584860278056961E-08
 resid(G=0) =  -2.635303086861995E-011
  NLPB:    2   0.257947783771162E+00   0.595344702334578E-05
  Finished solving NLPB equations
 End minimization
 Ecorr=   2064.69237308928     
 A_corr=  0.468867080874912     
 Ecorr_band=  -2064.22350600841     
 End Solvation calculations
RMM:  26    -0.194779435722E+03   -0.61658E-03   -0.10363E-05  7221   0.278E-03    0.346E-01
deltaQ =   3.162944E-06
 Dsol_rc =      -0.01650499     -0.00952904     -0.06350314
 Dele =       0.00000000      0.00000000     -0.08134240
alpha =   6.000000E-01
DIPOLC =       0.00000000      0.00000000     -0.14464834
ZVAL =  -1.446483E+00
deltaQ =   3.162944E-06
 Dsol_rc =      -0.01650499     -0.00952904     -0.06350314
 Dele =       0.00000000      0.00000000     -0.08134240
alpha =   6.000000E-01
DIPOLC =       0.00000000      0.00000000     -0.14464834
ZVAL =  -1.446483E+00
deltaQ =   3.162944E-06
 Dsol_rc =      -0.01650499     -0.00952904     -0.06350314
 Dele =       0.00000000      0.00000000     -0.08134240
alpha =   6.000000E-01
DIPOLC =       0.00000000      0.00000000     -0.14464834
ZVAL =  -1.446483E+00
deltaQ =   3.162944E-06
 Dsol_rc =      -0.01650499     -0.00952904     -0.06350314
 Dele =       0.00000000      0.00000000     -0.08134240
alpha =   6.000000E-01
DIPOLC =       0.00000000      0.00000000     -0.14464834
ZVAL =  -1.446483E+00
deltaQ =   3.162944E-06
 Dsol_rc =      -0.01650499     -0.00952904     -0.06350314
 Dele =       0.00000000      0.00000000     -0.08134240
alpha =   6.000000E-01
DIPOLC =       0.00000000      0.00000000     -0.14464834
ZVAL =  -1.446483E+00
deltaQ =   3.162944E-06
 Dsol_rc =      -0.01650499     -0.00952904     -0.06350314
 Dele =       0.00000000      0.00000000     -0.08134240
alpha =   6.000000E-01
DIPOLC =       0.00000000      0.00000000     -0.14464834
ZVAL =  -1.446483E+00
deltaQ =   3.162944E-06
deltaQ =   3.162944E-06
 Dsol_rc =      -0.01650499     -0.00952904     -0.06350314
 Dele =       0.00000000      0.00000000     -0.08134240
alpha =   6.000000E-01
DIPOLC =       0.00000000      0.00000000     -0.14464834
ZVAL =  -1.446483E+00
deltaQ =   3.162944E-06
 Dsol_rc =      -0.01650499     -0.00952904     -0.06350314
 Dele =       0.00000000      0.00000000     -0.08134240
alpha =   6.000000E-01
DIPOLC =       0.00000000      0.00000000     -0.14464834
ZVAL =  -1.446483E+00
deltaQ =   3.162944E-06
 Dsol_rc =      -0.01650499     -0.00952904     -0.06350314
 Dele =       0.00000000      0.00000000     -0.08134240
alpha =   6.000000E-01
DIPOLC =       0.00000000      0.00000000     -0.14464834
ZVAL =  -1.446483E+00
deltaQ =   3.162944E-06
 Dsol_rc =      -0.01650499     -0.00952904     -0.06350314
 Dele =       0.00000000      0.00000000     -0.08134240
alpha =   6.000000E-01
DIPOLC =       0.00000000      0.00000000     -0.14464834
ZVAL =  -1.446483E+00
deltaQ =   3.162944E-06
 Dsol_rc =      -0.01650499     -0.00952904     -0.06350314
 Dele =       0.00000000      0.00000000     -0.08134240
alpha =   6.000000E-01
DIPOLC =       0.00000000      0.00000000     -0.14464834
ZVAL =  -1.446483E+00
deltaQ =   3.162944E-06
 Dsol_rc =      -0.01650499     -0.00952904     -0.06350314
 Dele =       0.00000000      0.00000000     -0.08134240
alpha =   6.000000E-01
DIPOLC =       0.00000000      0.00000000     -0.14464834
ZVAL =  -1.446483E+00
deltaQ =   3.162944E-06
 Dsol_rc =      -0.01650499     -0.00952904     -0.06350314
 Dele =       0.00000000      0.00000000     -0.08134240
alpha =   6.000000E-01
DIPOLC =       0.00000000      0.00000000     -0.14464834
ZVAL =  -1.446483E+00
deltaQ =   3.162944E-06
 Dsol_rc =      -0.01650499     -0.00952904     -0.06350314
 Dele =       0.00000000      0.00000000     -0.08134240
alpha =   6.000000E-01
DIPOLC =       0.00000000      0.00000000     -0.14464834
ZVAL =  -1.446483E+00
deltaQ =   3.162944E-06
 Dsol_rc =      -0.01650499     -0.00952904     -0.06350314
 Dele =       0.00000000      0.00000000     -0.08134240
alpha =   6.000000E-01
DIPOLC =       0.00000000      0.00000000     -0.14464834
ZVAL =  -1.446483E+00
 Dsol_rc =      -0.01650499     -0.00952904     -0.06350314
 Dele =       0.00000000      0.00000000     -0.08134240
alpha =   6.000000E-01
DIPOLC =       0.00000000      0.00000000     -0.14464834
ZVAL =  -1.446483E+00
 Begin Solvation calculations
  rms_SCF =   1.103682094826673E-004 tol =   1.103682094826673E-005
 Begin minimization
 Creating dielectric and ionic cavities
  area:      239.953691141053     
  volume:    3289.53273003319     
  A_cav:    0.210919294512986     
  qion_max:     4.88319216925674     
  Solving nonlinear dielectric/ionic screening model
  Starting outer loop
        iter                  A_solv                     rms
 resid(G=0) =  -1.920216778084072E-007
  NLPB:    0   0.257994971054758E+00   0.758049724293289E-03
   LPB:        0.257994971054758E+00   0.758049699972770E-03
   LPB:    0   0.257994971054758E+00   0.757962905545234E-03  -0.231695E-08   0.000000E+00   0.828768E+02  -0.192022E-06
   LPB:    1   0.257994983269388E+00   0.145082117084691E-02   0.313816E-01   0.000000E+00   0.389780E+02   0.156098E-22
   LPB:    2   0.257995006437869E+00   0.110810612921337E-02   0.194147E-01   0.306592E+01   0.511164E+02  -0.142801E-17
   LPB:    3   0.257995148409382E+00   0.193238572608675E-02   0.834520E-01   0.142560E+01   0.900705E+01   0.532946E-17
   LPB:    4   0.257995198084195E+00   0.143252688609357E-02   0.119930E-01   0.243469E+01   0.346309E+02   0.103047E-15
   LPB:    5   0.257995208451684E+00   0.823794291551979E-03   0.638481E-02   0.392028E+00   0.120072E+03   0.127464E-15
   LPB:    6   0.257995220426835E+00   0.144325334952115E-03   0.152389E-01   0.483952E+00   0.135392E+03   0.132963E-15
   LPB:    7   0.257995225196637E+00   0.939974454058385E-04   0.257051E-01   0.236131E+00   0.167848E+03   0.143324E-15
   LPB:    8   0.257995226988361E+00   0.157537180474535E-03   0.239316E-01   0.403476E+00   0.518910E+03   0.151145E-15
   LPB:    9   0.257995227850592E+00   0.996198400477931E-04   0.156215E-01   0.737229E+00   0.479288E+03   0.153841E-15
   LPB:   10   0.257995228453339E+00   0.606274963076907E-04   0.205142E-01   0.532329E+00   0.737775E+03   0.155593E-15
    LS:    0   0.257995228452365E+00   0.257397606895360E-06   0.514797163383542E-06
 resid(G=0) =  -2.518825148456472E-010
  NLPB:    1   0.257995228452365E+00   0.606437122925230E-04
   LPB:        0.257995228452365E+00   0.606437122919999E-04
   LPB:    0   0.257995228452365E+00   0.606439537630541E-04  -0.303924E-11   0.000000E+00   0.828768E+02  -0.251883E-09
   LPB:    1   0.257995228679019E+00   0.475023413870321E-04   0.147803E-01   0.000000E+00   0.398743E+03  -0.114283E-25
   LPB:    2   0.257995228850358E+00   0.598103917929931E-04   0.242324E-01   0.461082E+00   0.650886E+03  -0.803785E-18
   LPB:    3   0.257995229003472E+00   0.321804631383771E-04   0.201228E-01   0.107613E+01   0.547797E+03  -0.128717E-17
   LPB:    4   0.257995229148506E+00   0.314219137425223E-04   0.283034E-01   0.673451E+00   0.746879E+03  -0.144133E-17
   LPB:    5   0.257995229237962E+00   0.892971904446170E-04   0.217813E-01   0.801484E+00   0.440754E+03  -0.164077E-17
   LPB:    6   0.257995229277647E+00   0.457495509511189E-04   0.701492E-02   0.137745E+01   0.273179E+03  -0.197390E-17
   LPB:    7   0.257995229339339E+00   0.188998210585990E-04   0.204249E-01   0.533910E+00   0.308458E+03  -0.206570E-17
   LPB:    8   0.257995229372692E+00   0.168525638893235E-04   0.233180E-01   0.473559E+00   0.266628E+03  -0.211342E-17
   LPB:    9   0.257995229386551E+00   0.195045973163611E-04   0.235748E-01   0.411006E+00   0.112035E+03  -0.230286E-17
   LPB:   10   0.257995229400413E+00   0.371835511442084E-04   0.205098E-01   0.114969E+01   0.215032E+03  -0.241277E-17
   LPB:   11   0.257995229410716E+00   0.139968161183221E-04   0.133265E-01   0.114386E+01   0.253595E+03  -0.252915E-17
   LPB:   12   0.257995229421719E+00   0.707249532523683E-05   0.212765E-01   0.668918E+00   0.564345E+03  -0.270294E-17
   LPB:   13   0.257995229427425E+00   0.107671046036161E-04   0.233717E-01   0.472067E+00   0.538549E+03  -0.288200E-17
   LPB:   14   0.257995229432005E+00   0.426006017256907E-05   0.175724E-01   0.106770E+01   0.399707E+03  -0.297264E-17
    LS:    0   0.257995229432010E+00   0.979645919940708E-09   0.195928136327883E-08
 resid(G=0) =  -1.027283813570534E-011
  NLPB:    2   0.257995229432010E+00   0.426107444730246E-05
  Finished solving NLPB equations
 End minimization
 Ecorr=   2065.18114471705     
 A_corr=  0.468914523944996     
 Ecorr_band=  -2064.71223019311     
 End Solvation calculations
RMM:  27    -0.194779509419E+03   -0.73697E-04   -0.18972E-06  6724   0.140E-03    0.346E-01
deltaQ =   3.162724E-06
 Dsol_rc =      -0.01659299     -0.00952931     -0.06120912
 Dele =       0.00000000      0.00000000     -0.08893889
alpha =   6.000000E-01
DIPOLC =       0.00000000      0.00000000     -0.14794814
ZVAL =  -1.479481E+00
deltaQ =   3.162724E-06
deltaQ =   3.162724E-06
 Dsol_rc =      -0.01659299     -0.00952931     -0.06120912
 Dele =       0.00000000      0.00000000     -0.08893889
alpha =   6.000000E-01
DIPOLC =       0.00000000      0.00000000     -0.14794814
ZVAL =  -1.479481E+00
deltaQ =   3.162724E-06
 Dsol_rc =      -0.01659299     -0.00952931     -0.06120912
 Dele =       0.00000000      0.00000000     -0.08893889
alpha =   6.000000E-01
DIPOLC =       0.00000000      0.00000000     -0.14794814
ZVAL =  -1.479481E+00
deltaQ =   3.162724E-06
 Dsol_rc =      -0.01659299     -0.00952931     -0.06120912
 Dele =       0.00000000      0.00000000     -0.08893889
alpha =   6.000000E-01
DIPOLC =       0.00000000      0.00000000     -0.14794814
ZVAL =  -1.479481E+00
deltaQ =   3.162724E-06
 Dsol_rc =      -0.01659299     -0.00952931     -0.06120912
 Dele =       0.00000000      0.00000000     -0.08893889
alpha =   6.000000E-01
DIPOLC =       0.00000000      0.00000000     -0.14794814
ZVAL =  -1.479481E+00
deltaQ =   3.162724E-06
 Dsol_rc =      -0.01659299     -0.00952931     -0.06120912
 Dele =       0.00000000      0.00000000     -0.08893889
alpha =   6.000000E-01
DIPOLC =       0.00000000      0.00000000     -0.14794814
ZVAL =  -1.479481E+00
deltaQ =   3.162724E-06
 Dsol_rc =      -0.01659299     -0.00952931     -0.06120912
 Dele =       0.00000000      0.00000000     -0.08893889
alpha =   6.000000E-01
DIPOLC =       0.00000000      0.00000000     -0.14794814
ZVAL =  -1.479481E+00
deltaQ =   3.162724E-06
 Dsol_rc =      -0.01659299     -0.00952931     -0.06120912
 Dele =       0.00000000      0.00000000     -0.08893889
alpha =   6.000000E-01
DIPOLC =       0.00000000      0.00000000     -0.14794814
ZVAL =  -1.479481E+00
deltaQ =   3.162724E-06
 Dsol_rc =      -0.01659299     -0.00952931     -0.06120912
 Dele =       0.00000000      0.00000000     -0.08893889
alpha =   6.000000E-01
DIPOLC =       0.00000000      0.00000000     -0.14794814
ZVAL =  -1.479481E+00
deltaQ =   3.162724E-06
 Dsol_rc =      -0.01659299     -0.00952931     -0.06120912
 Dele =       0.00000000      0.00000000     -0.08893889
alpha =   6.000000E-01
DIPOLC =       0.00000000      0.00000000     -0.14794814
ZVAL =  -1.479481E+00
deltaQ =   3.162724E-06
 Dsol_rc =      -0.01659299     -0.00952931     -0.06120912
 Dele =       0.00000000      0.00000000     -0.08893889
alpha =   6.000000E-01
DIPOLC =       0.00000000      0.00000000     -0.14794814
ZVAL =  -1.479481E+00
deltaQ =   3.162724E-06
 Dsol_rc =      -0.01659299     -0.00952931     -0.06120912
 Dele =       0.00000000      0.00000000     -0.08893889
alpha =   6.000000E-01
DIPOLC =       0.00000000      0.00000000     -0.14794814
ZVAL =  -1.479481E+00
deltaQ =   3.162724E-06
 Dsol_rc =      -0.01659299     -0.00952931     -0.06120912
 Dele =       0.00000000      0.00000000     -0.08893889
alpha =   6.000000E-01
DIPOLC =       0.00000000      0.00000000     -0.14794814
ZVAL =  -1.479481E+00
deltaQ =   3.162724E-06
 Dsol_rc =      -0.01659299     -0.00952931     -0.06120912
 Dele =       0.00000000      0.00000000     -0.08893889
alpha =   6.000000E-01
DIPOLC =       0.00000000      0.00000000     -0.14794814
ZVAL =  -1.479481E+00
deltaQ =   3.162724E-06
 Dsol_rc =      -0.01659299     -0.00952931     -0.06120912
 Dele =       0.00000000      0.00000000     -0.08893889
alpha =   6.000000E-01
DIPOLC =       0.00000000      0.00000000     -0.14794814
ZVAL =  -1.479481E+00
 Dsol_rc =      -0.01659299     -0.00952931     -0.06120912
 Dele =       0.00000000      0.00000000     -0.08893889
alpha =   6.000000E-01
DIPOLC =       0.00000000      0.00000000     -0.14794814
ZVAL =  -1.479481E+00
 Begin Solvation calculations
  rms_SCF =   1.103682094826673E-004 tol =   1.103682094826673E-005
 Begin minimization
 Creating dielectric and ionic cavities
  area:      239.953698674153     
  volume:    3289.53152304606     
  A_cav:    0.210919301134581     
  qion_max:     4.88319585312436     
  Solving nonlinear dielectric/ionic screening model
  Starting outer loop
        iter                  A_solv                     rms
 resid(G=0) =   1.810991763356862E-007
  NLPB:    0   0.257980271036546E+00   0.244469469285323E-02
   LPB:        0.257980271036546E+00   0.244469468614546E-02
   LPB:    0   0.257980271036546E+00   0.244489613602713E-02   0.218516E-08   0.000000E+00   0.828769E+02   0.181099E-06
   LPB:    1   0.257984421632122E+00   0.320674333284474E-01   0.254658E+00   0.000000E+00   0.160730E+02   0.331251E-23
   LPB:    2   0.257989914888173E+00   0.148351993805277E-01   0.140874E-01   0.239247E+02   0.227239E+02   0.110491E-15
   LPB:    3   0.257995525290645E+00   0.531796168875508E-02   0.208212E-01   0.691018E+00   0.428200E+02   0.510677E-15
   LPB:    4   0.257995884334475E+00   0.961493849079556E-03   0.107497E-01   0.123955E+00   0.909466E+02   0.116138E-14
   LPB:    5   0.257995967626640E+00   0.203649134665133E-02   0.177948E-01   0.140139E+00   0.561351E+03   0.115414E-14
   LPB:    6   0.257995986418284E+00   0.102733470403816E-02   0.616268E-02   0.651456E+00   0.326354E+03   0.115855E-14
   LPB:    7   0.257996010856655E+00   0.186160173540698E-03   0.174115E-01   0.460300E+00   0.645937E+03   0.116399E-14
    LS:    0   0.257996010816597E+00   0.157397800509274E-04   0.314796402181975E-04
 resid(G=0) =  -1.023426579593867E-009
  NLPB:    1   0.257996010816597E+00   0.186179876727310E-03
   LPB:        0.257996010816597E+00   0.186179876724497E-03
   LPB:    0   0.257996010816597E+00   0.186179821015608E-03  -0.123488E-10   0.000000E+00   0.828769E+02  -0.102343E-08
   LPB:    1   0.257996018106509E+00   0.365579818829913E-03   0.178264E-01   0.000000E+00   0.128400E+04   0.134636E-25
   LPB:    2   0.257996021544563E+00   0.726267187628943E-03   0.137774E-01   0.610219E+00   0.415438E+03  -0.120292E-17
   LPB:    3   0.257996025167226E+00   0.338553885645142E-03   0.982979E-02   0.147686E+01   0.436343E+03  -0.162676E-17
   LPB:    4   0.257996028353567E+00   0.182363053057007E-03   0.162065E-01   0.533482E+00   0.345713E+03  -0.139107E-17
   LPB:    5   0.257996031127473E+00   0.109815001607331E-03   0.220217E-01   0.640674E+00   0.539427E+03  -0.841170E-18
   LPB:    6   0.257996032033450E+00   0.142860347734503E-03   0.228873E-01   0.314255E+00   0.197269E+03  -0.215678E-17
   LPB:    7   0.257996032599774E+00   0.233909187150066E-03   0.186912E-01   0.765432E+00   0.100958E+03  -0.272288E-17
   LPB:    8   0.257996033078021E+00   0.159268071265677E-03   0.153461E-01   0.102855E+01   0.182663E+03  -0.135286E-17
   LPB:    9   0.257996033532009E+00   0.373374940181701E-04   0.164329E-01   0.886494E+00   0.353088E+03  -0.102124E-17
   LPB:   10   0.257996033798423E+00   0.475509340279143E-04   0.247442E-01   0.389721E+00   0.733086E+03  -0.569297E-18
   LPB:   11   0.257996033947873E+00   0.512248031949898E-04   0.257383E-01   0.539306E+00   0.175850E+03  -0.197699E-18
   LPB:   12   0.257996034044099E+00   0.415201077386468E-04   0.173293E-01   0.956297E+00   0.296390E+03   0.907825E-18
   LPB:   13   0.257996034161226E+00   0.537544024981405E-04   0.273950E-01   0.769966E+00   0.981752E+03   0.143901E-17
   LPB:   14   0.257996034188537E+00   0.601166523849213E-04   0.825116E-02   0.774179E+00   0.332585E+03   0.162851E-17
   LPB:   15   0.257996034231475E+00   0.191519949436747E-04   0.143498E-01   0.904012E+00   0.696422E+03   0.166130E-17
   LPB:   16   0.257996034269401E+00   0.131332589651859E-04   0.291186E-01   0.435279E+00   0.244898E+03   0.177001E-17
    LS:    0   0.257996034273936E+00   0.234573393487203E-07   0.469056082405120E-07
 resid(G=0) =  -1.469508958962251E-010
  NLPB:    2   0.257996034273936E+00   0.130841453212979E-04
   LPB:        0.257996034273936E+00   0.130841453204727E-04
   LPB:    0   0.257996034273936E+00   0.130840308327568E-04  -0.177312E-11   0.000000E+00   0.828769E+02  -0.146951E-09
   LPB:    1   0.257996034289867E+00   0.101426326872005E-04   0.164707E-01   0.000000E+00   0.537585E+03  -0.457907E-26
   LPB:    2   0.257996034304423E+00   0.233136341255215E-04   0.297590E-01   0.505691E+00   0.849063E+03  -0.846555E-19
   LPB:    3   0.257996034309525E+00   0.276071939175668E-04   0.911308E-02   0.114463E+01   0.333797E+03  -0.181878E-18
   LPB:    4   0.257996034323424E+00   0.966856880375879E-05   0.211159E-01   0.117572E+01   0.659713E+03  -0.212616E-18
   LPB:    5   0.257996034331629E+00   0.139509926450052E-04   0.215620E-01   0.578134E+00   0.573382E+03  -0.306661E-18
   LPB:    6   0.257996034338718E+00   0.846010356346384E-05   0.190033E-01   0.980229E+00   0.462425E+03  -0.383743E-18
   LPB:    7   0.257996034345187E+00   0.996090812392555E-05   0.263556E-01   0.658011E+00   0.639418E+03  -0.518271E-18
   LPB:    8   0.257996034349226E+00   0.187559046511814E-04   0.173136E-01   0.950456E+00   0.348773E+03  -0.603664E-18
   LPB:    9   0.257996034353068E+00   0.977816482696708E-05   0.143408E-01   0.114849E+01   0.204971E+03  -0.667870E-18
   LPB:   10   0.257996034356166E+00   0.471562133277545E-05   0.213100E-01   0.542526E+00   0.353173E+03  -0.648790E-18
   LPB:   11   0.257996034358301E+00   0.458253166645620E-05   0.259869E-01   0.565172E+00   0.323870E+03  -0.791121E-18
   LPB:   12   0.257996034360214E+00   0.459617170115494E-05   0.295227E-01   0.788997E+00   0.232103E+03  -0.833113E-18
   LPB:   13   0.257996034361430E+00   0.325181065984336E-05   0.201825E-01   0.929037E+00   0.463408E+03  -0.974840E-18
   LPB:   14   0.257996034362137E+00   0.579087353559181E-05   0.192560E-01   0.610384E+00   0.361046E+03  -0.106857E-17
   LPB:   15   0.257996034362448E+00   0.578512577448737E-05   0.906658E-02   0.931687E+00   0.335072E+03  -0.113009E-17
   LPB:   16   0.257996034362793E+00   0.262199100903800E-05   0.119151E-01   0.846661E+00   0.316542E+03  -0.117840E-17
   LPB:   17   0.257996034363299E+00   0.152374614832007E-05   0.275785E-01   0.632191E+00   0.447759E+03  -0.123577E-17
   LPB:   18   0.257996034363634E+00   0.591767875494306E-06   0.224041E-01   0.814747E+00   0.672939E+03  -0.130001E-17
    LS:    0   0.257996034363620E+00   0.896834828623128E-10   0.179394198777099E-09
 resid(G=0) =  -6.537548280505234E-013
  NLPB:    3   0.257996034363620E+00   0.591787485983228E-06
  Finished solving NLPB equations
 End minimization
 Ecorr=   2065.55415702625     
 A_corr=  0.468915335498201     
 Ecorr_band=  -2065.08524169075     
 End Solvation calculations
RMM:  28    -0.194778973677E+03    0.53574E-03   -0.10225E-05  8048   0.283E-03    0.334E-01
deltaQ =   3.162645E-06
 Dsol_rc =      -0.01656834     -0.00953118     -0.05660878
 Dele =       0.00000000      0.00000000     -0.08574451
alpha =   3.000000E-01
DIPOLC =       0.00000000      0.00000000     -0.14626969
ZVAL =  -1.462697E+00
deltaQ =   3.162645E-06
 Dsol_rc =      -0.01656834     -0.00953118     -0.05660878
 Dele =       0.00000000      0.00000000     -0.08574451
alpha =   3.000000E-01
DIPOLC =       0.00000000      0.00000000     -0.14626969
ZVAL =  -1.462697E+00
deltaQ =   3.162645E-06
deltaQ =   3.162645E-06
 Dsol_rc =      -0.01656834     -0.00953118     -0.05660878
 Dele =       0.00000000      0.00000000     -0.08574451
alpha =   3.000000E-01
DIPOLC =       0.00000000      0.00000000     -0.14626969
ZVAL =  -1.462697E+00
deltaQ =   3.162645E-06
 Dsol_rc =      -0.01656834     -0.00953118     -0.05660878
 Dele =       0.00000000      0.00000000     -0.08574451
alpha =   3.000000E-01
DIPOLC =       0.00000000      0.00000000     -0.14626969
ZVAL =  -1.462697E+00
deltaQ =   3.162645E-06
 Dsol_rc =      -0.01656834     -0.00953118     -0.05660878
 Dele =       0.00000000      0.00000000     -0.08574451
alpha =   3.000000E-01
DIPOLC =       0.00000000      0.00000000     -0.14626969
ZVAL =  -1.462697E+00
deltaQ =   3.162645E-06
 Dsol_rc =      -0.01656834     -0.00953118     -0.05660878
 Dele =       0.00000000      0.00000000     -0.08574451
alpha =   3.000000E-01
DIPOLC =       0.00000000      0.00000000     -0.14626969
ZVAL =  -1.462697E+00
deltaQ =   3.162645E-06
 Dsol_rc =      -0.01656834     -0.00953118     -0.05660878
 Dele =       0.00000000      0.00000000     -0.08574451
alpha =   3.000000E-01
DIPOLC =       0.00000000      0.00000000     -0.14626969
ZVAL =  -1.462697E+00
deltaQ =   3.162645E-06
 Dsol_rc =      -0.01656834     -0.00953118     -0.05660878
 Dele =       0.00000000      0.00000000     -0.08574451
alpha =   3.000000E-01
DIPOLC =       0.00000000      0.00000000     -0.14626969
ZVAL =  -1.462697E+00
deltaQ =   3.162645E-06
 Dsol_rc =      -0.01656834     -0.00953118     -0.05660878
 Dele =       0.00000000      0.00000000     -0.08574451
alpha =   3.000000E-01
DIPOLC =       0.00000000      0.00000000     -0.14626969
ZVAL =  -1.462697E+00
deltaQ =   3.162645E-06
 Dsol_rc =      -0.01656834     -0.00953118     -0.05660878
 Dele =       0.00000000      0.00000000     -0.08574451
alpha =   3.000000E-01
DIPOLC =       0.00000000      0.00000000     -0.14626969
ZVAL =  -1.462697E+00
deltaQ =   3.162645E-06
 Dsol_rc =      -0.01656834     -0.00953118     -0.05660878
 Dele =       0.00000000      0.00000000     -0.08574451
alpha =   3.000000E-01
DIPOLC =       0.00000000      0.00000000     -0.14626969
ZVAL =  -1.462697E+00
deltaQ =   3.162645E-06
 Dsol_rc =      -0.01656834     -0.00953118     -0.05660878
 Dele =       0.00000000      0.00000000     -0.08574451
alpha =   3.000000E-01
DIPOLC =       0.00000000      0.00000000     -0.14626969
ZVAL =  -1.462697E+00
deltaQ =   3.162645E-06
 Dsol_rc =      -0.01656834     -0.00953118     -0.05660878
 Dele =       0.00000000      0.00000000     -0.08574451
alpha =   3.000000E-01
DIPOLC =       0.00000000      0.00000000     -0.14626969
ZVAL =  -1.462697E+00
deltaQ =   3.162645E-06
 Dsol_rc =      -0.01656834     -0.00953118     -0.05660878
 Dele =       0.00000000      0.00000000     -0.08574451
alpha =   3.000000E-01
DIPOLC =       0.00000000      0.00000000     -0.14626969
ZVAL =  -1.462697E+00
deltaQ =   3.162645E-06
 Dsol_rc =      -0.01656834     -0.00953118     -0.05660878
 Dele =       0.00000000      0.00000000     -0.08574451
alpha =   3.000000E-01
DIPOLC =       0.00000000      0.00000000     -0.14626969
ZVAL =  -1.462697E+00
 Dsol_rc =      -0.01656834     -0.00953118     -0.05660878
 Dele =       0.00000000      0.00000000     -0.08574451
alpha =   3.000000E-01
DIPOLC =       0.00000000      0.00000000     -0.14626969
ZVAL =  -1.462697E+00
 Begin Solvation calculations
  rms_SCF =   1.103682094826673E-004 tol =   1.103682094826673E-005
 Begin minimization
 Creating dielectric and ionic cavities
  area:      239.953707220629     
  volume:    3289.53172240660     
  A_cav:    0.210919308646933     
  qion_max:     4.88319521148921     
  Solving nonlinear dielectric/ionic screening model
  Starting outer loop
        iter                  A_solv                     rms
 resid(G=0) =  -3.189115634072426E-008
  NLPB:    0   0.257974203549474E+00   0.119085963534131E-02
   LPB:        0.257974203549474E+00   0.119085963491429E-02
   LPB:    0   0.257974203549474E+00   0.119088630168680E-02  -0.384801E-09   0.000000E+00   0.828769E+02  -0.318912E-07
   LPB:    1   0.257974974231110E+00   0.149431722225411E-01   0.186817E+00   0.000000E+00   0.260929E+02  -0.950613E-24
   LPB:    2   0.257976387331153E+00   0.750318576806519E-02   0.165522E-01   0.206947E+02   0.315885E+02  -0.200315E-16
   LPB:    3   0.257977982550532E+00   0.267028422472809E-02   0.234842E-01   0.795659E+00   0.485014E+02  -0.172255E-15
   LPB:    4   0.257978107283514E+00   0.473645782220579E-03   0.110644E-01   0.165962E+00   0.146009E+03  -0.474016E-15
   LPB:    5   0.257978130951465E+00   0.283475388930148E-03   0.180539E-01   0.116288E+00   0.105510E+04  -0.463580E-15
   LPB:    6   0.257978139450095E+00   0.688147254126869E-03   0.191113E-01   0.339211E+00   0.645052E+03  -0.462982E-15
   LPB:    7   0.257978141492659E+00   0.328366138991482E-03   0.608138E-02   0.755292E+00   0.325876E+03  -0.465406E-15
   LPB:    8   0.257978144583649E+00   0.109300609097419E-03   0.205304E-01   0.448257E+00   0.399850E+03  -0.465878E-15
    LS:    0   0.257978144585597E+00   0.394103612294527E-05   0.788206834836545E-05
 resid(G=0) =  -5.497255012310021E-010
  NLPB:    1   0.257978144585597E+00   0.109345200984880E-03
   LPB:        0.257978144585597E+00   0.109345200983498E-03
   LPB:    0   0.257978144585597E+00   0.109346022500903E-03  -0.663304E-11   0.000000E+00   0.828769E+02  -0.549726E-09
   LPB:    1   0.257978145613989E+00   0.128800158061919E-03   0.198730E-01   0.000000E+00   0.190210E+03   0.476719E-26
   LPB:    2   0.257978146031721E+00   0.300363502461706E-03   0.151019E-01   0.534528E+00   0.362462E+03  -0.769966E-18
   LPB:    3   0.257978146640940E+00   0.754677825594920E-04   0.108519E-01   0.202957E+01   0.316157E+03  -0.354451E-18
   LPB:    4   0.257978147124052E+00   0.668853129932206E-04   0.239430E-01   0.359419E+00   0.639210E+03   0.678532E-18
   LPB:    5   0.257978147442078E+00   0.570253457749381E-04   0.192975E-01   0.816754E+00   0.468182E+03   0.130182E-17
   LPB:    6   0.257978147645152E+00   0.265348228471410E-04   0.181711E-01   0.678128E+00   0.400638E+03   0.155905E-17
   LPB:    7   0.257978147723723E+00   0.380512480764994E-04   0.213193E-01   0.329776E+00   0.350513E+03   0.213820E-17
   LPB:    8   0.257978147788330E+00   0.691216796726783E-04   0.213441E-01   0.821308E+00   0.103686E+03   0.234205E-17
   LPB:    9   0.257978147837758E+00   0.582267790536273E-04   0.162995E-01   0.100185E+01   0.314967E+03   0.188080E-17
   LPB:   10   0.257978147887614E+00   0.156842801544981E-04   0.150002E-01   0.109602E+01   0.192374E+03   0.221281E-17
   LPB:   11   0.257978147923510E+00   0.131382113793182E-04   0.346098E-01   0.312057E+00   0.547595E+03   0.292758E-17
   LPB:   12   0.257978147937213E+00   0.197407343138733E-04   0.203520E-01   0.649165E+00   0.350680E+03   0.331213E-17
   LPB:   13   0.257978147946147E+00   0.251263836115704E-04   0.145285E-01   0.913250E+00   0.398911E+03   0.347770E-17
   LPB:   14   0.257978147951657E+00   0.247253366479989E-04   0.961271E-02   0.932156E+00   0.348466E+03   0.360082E-17
   LPB:   15   0.257978147962936E+00   0.517470178896210E-05   0.187926E-01   0.104719E+01   0.993642E+03   0.367616E-17
    LS:    0   0.257978147962909E+00   0.337731154154142E-08   0.675467819959813E-08
 resid(G=0) =  -1.144151440257701E-011
  NLPB:    2   0.257978147962909E+00   0.517304435073150E-05
  Finished solving NLPB equations
 End minimization
 Ecorr=   2065.17533700488     
 A_corr=  0.468897456609842     
 Ecorr_band=  -2064.70643954827     
 End Solvation calculations
RMM:  29    -0.194779144101E+03   -0.17042E-03   -0.10348E-06  6244   0.108E-03    0.338E-01
deltaQ =   3.163165E-06
 Dsol_rc =      -0.01657411     -0.00953043     -0.05939451
 Dele =       0.00000000      0.00000000     -0.08127219
alpha =   6.000000E-01
DIPOLC =       0.00000000      0.00000000     -0.14290789
ZVAL =  -1.429079E+00
deltaQ =   3.163165E-06
deltaQ =   3.163165E-06
 Dsol_rc =      -0.01657411     -0.00953043     -0.05939451
 Dele =       0.00000000      0.00000000     -0.08127219
alpha =   6.000000E-01
DIPOLC =       0.00000000      0.00000000     -0.14290789
ZVAL =  -1.429079E+00
deltaQ =   3.163165E-06
 Dsol_rc =      -0.01657411     -0.00953043     -0.05939451
 Dele =       0.00000000      0.00000000     -0.08127219
alpha =   6.000000E-01
DIPOLC =       0.00000000      0.00000000     -0.14290789
ZVAL =  -1.429079E+00
deltaQ =   3.163165E-06
 Dsol_rc =      -0.01657411     -0.00953043     -0.05939451
 Dele =       0.00000000      0.00000000     -0.08127219
alpha =   6.000000E-01
DIPOLC =       0.00000000      0.00000000     -0.14290789
ZVAL =  -1.429079E+00
deltaQ =   3.163165E-06
 Dsol_rc =      -0.01657411     -0.00953043     -0.05939451
 Dele =       0.00000000      0.00000000     -0.08127219
alpha =   6.000000E-01
DIPOLC =       0.00000000      0.00000000     -0.14290789
ZVAL =  -1.429079E+00
deltaQ =   3.163165E-06
 Dsol_rc =      -0.01657411     -0.00953043     -0.05939451
 Dele =       0.00000000      0.00000000     -0.08127219
alpha =   6.000000E-01
DIPOLC =       0.00000000      0.00000000     -0.14290789
ZVAL =  -1.429079E+00
deltaQ =   3.163165E-06
 Dsol_rc =      -0.01657411     -0.00953043     -0.05939451
 Dele =       0.00000000      0.00000000     -0.08127219
alpha =   6.000000E-01
DIPOLC =       0.00000000      0.00000000     -0.14290789
ZVAL =  -1.429079E+00
deltaQ =   3.163165E-06
 Dsol_rc =      -0.01657411     -0.00953043     -0.05939451
 Dele =       0.00000000      0.00000000     -0.08127219
alpha =   6.000000E-01
DIPOLC =       0.00000000      0.00000000     -0.14290789
ZVAL =  -1.429079E+00
deltaQ =   3.163165E-06
 Dsol_rc =      -0.01657411     -0.00953043     -0.05939451
 Dele =       0.00000000      0.00000000     -0.08127219
alpha =   6.000000E-01
DIPOLC =       0.00000000      0.00000000     -0.14290789
ZVAL =  -1.429079E+00
deltaQ =   3.163165E-06
 Dsol_rc =      -0.01657411     -0.00953043     -0.05939451
 Dele =       0.00000000      0.00000000     -0.08127219
alpha =   6.000000E-01
DIPOLC =       0.00000000      0.00000000     -0.14290789
ZVAL =  -1.429079E+00
deltaQ =   3.163165E-06
 Dsol_rc =      -0.01657411     -0.00953043     -0.05939451
 Dele =       0.00000000      0.00000000     -0.08127219
alpha =   6.000000E-01
DIPOLC =       0.00000000      0.00000000     -0.14290789
ZVAL =  -1.429079E+00
deltaQ =   3.163165E-06
 Dsol_rc =      -0.01657411     -0.00953043     -0.05939451
 Dele =       0.00000000      0.00000000     -0.08127219
alpha =   6.000000E-01
DIPOLC =       0.00000000      0.00000000     -0.14290789
ZVAL =  -1.429079E+00
deltaQ =   3.163165E-06
 Dsol_rc =      -0.01657411     -0.00953043     -0.05939451
 Dele =       0.00000000      0.00000000     -0.08127219
alpha =   6.000000E-01
DIPOLC =       0.00000000      0.00000000     -0.14290789
ZVAL =  -1.429079E+00
deltaQ =   3.163165E-06
 Dsol_rc =      -0.01657411     -0.00953043     -0.05939451
 Dele =       0.00000000      0.00000000     -0.08127219
alpha =   6.000000E-01
DIPOLC =       0.00000000      0.00000000     -0.14290789
ZVAL =  -1.429079E+00
deltaQ =   3.163165E-06
 Dsol_rc =      -0.01657411     -0.00953043     -0.05939451
 Dele =       0.00000000      0.00000000     -0.08127219
alpha =   6.000000E-01
DIPOLC =       0.00000000      0.00000000     -0.14290789
ZVAL =  -1.429079E+00
 Dsol_rc =      -0.01657411     -0.00953043     -0.05939451
 Dele =       0.00000000      0.00000000     -0.08127219
alpha =   6.000000E-01
DIPOLC =       0.00000000      0.00000000     -0.14290789
ZVAL =  -1.429079E+00
 Begin Solvation calculations
  rms_SCF =   1.103682094826673E-004 tol =   1.103682094826673E-005
 Begin minimization
 Creating dielectric and ionic cavities
  area:      239.953742279897     
  volume:    3289.53131361370     
  A_cav:    0.210919339464030     
  qion_max:     4.88319622620501     
  Solving nonlinear dielectric/ionic screening model
  Starting outer loop
        iter                  A_solv                     rms
 resid(G=0) =   5.007365071196812E-008
  NLPB:    0   0.257910446135045E+00   0.224945491137362E-02
   LPB:        0.257910446135045E+00   0.224945491081629E-02
   LPB:    0   0.257910446135045E+00   0.224942424346534E-02   0.604193E-09   0.000000E+00   0.828769E+02   0.500737E-07
   LPB:    1   0.257913359040012E+00   0.297550161806163E-01   0.178862E+00   0.000000E+00   0.326495E+02   0.195990E-23
   LPB:    2   0.257919223049551E+00   0.146518998583014E-01   0.172698E-01   0.208497E+02   0.399496E+02  -0.105639E-16
   LPB:    3   0.257925401106811E+00   0.465768273372056E-02   0.234715E-01   0.775180E+00   0.537224E+02  -0.398215E-15
   LPB:    4   0.257925869612755E+00   0.230846648480563E-02   0.111074E-01   0.160248E+00   0.228340E+03  -0.116220E-14
   LPB:    5   0.257925923588228E+00   0.254153195595083E-02   0.810431E-02   0.157898E+00   0.363722E+03  -0.117925E-14
   LPB:    6   0.257925970063489E+00   0.661769436374801E-03   0.951489E-02   0.733395E+00   0.530983E+03  -0.118174E-14
   LPB:    7   0.257925995372233E+00   0.267498659532514E-03   0.187003E-01   0.277079E+00   0.424578E+03  -0.118769E-14
   LPB:    8   0.257926007035277E+00   0.239840519136505E-03   0.280500E-01   0.307226E+00   0.417693E+03  -0.118919E-14
   LPB:    9   0.257926011455736E+00   0.309616938449866E-03   0.217037E-01   0.489840E+00   0.357130E+03  -0.118428E-14
   LPB:   10   0.257926014143394E+00   0.142050181210070E-03   0.150778E-01   0.875188E+00   0.337429E+03  -0.118241E-14
    LS:    0   0.257926014142744E+00   0.155680076985298E-04   0.311360166960781E-04
 resid(G=0) =  -1.959721954158944E-009
  NLPB:    1   0.257926014142744E+00   0.141958883961093E-03
   LPB:        0.257926014142744E+00   0.141958883947567E-03
   LPB:    0   0.257926014142744E+00   0.141956477520016E-03  -0.236462E-10   0.000000E+00   0.828768E+02  -0.195972E-08
   LPB:    1   0.257926015325282E+00   0.152835154218652E-03   0.160555E-01   0.000000E+00   0.247257E+03   0.212067E-25
   LPB:    2   0.257926016205969E+00   0.117193506264675E-03   0.190209E-01   0.628636E+00   0.566153E+03  -0.411968E-18
   LPB:    3   0.257926017280480E+00   0.699552468437835E-04   0.292945E-01   0.792197E+00   0.250769E+03  -0.258447E-18
   LPB:    4   0.257926018065334E+00   0.795302409577546E-04   0.328051E-01   0.652263E+00   0.407114E+03  -0.268276E-18
   LPB:    5   0.257926018447733E+00   0.198054323854237E-03   0.188721E-01   0.846931E+00   0.369955E+03  -0.172119E-18
   LPB:    6   0.257926018651874E+00   0.995097396307433E-04   0.738786E-02   0.136369E+01   0.309966E+03   0.137229E-18
   LPB:    7   0.257926018914804E+00   0.531297747885005E-04   0.181597E-01   0.523987E+00   0.379611E+03   0.250287E-18
   LPB:    8   0.257926019044467E+00   0.270156692878157E-04   0.176520E-01   0.507329E+00   0.210735E+03   0.280763E-18
   LPB:    9   0.257926019104476E+00   0.416640032033727E-04   0.223158E-01   0.366089E+00   0.289140E+03   0.906906E-18
   LPB:   10   0.257926019153562E+00   0.673778996162793E-04   0.162863E-01   0.112080E+01   0.142738E+03   0.812276E-18
   LPB:   11   0.257926019203614E+00   0.422497936276001E-04   0.183690E-01   0.904053E+00   0.343797E+03   0.725491E-18
   LPB:   12   0.257926019244176E+00   0.171385004053339E-04   0.151651E-01   0.981627E+00   0.334463E+03   0.128107E-17
   LPB:   13   0.257926019279480E+00   0.122004360820294E-04   0.287792E-01   0.458626E+00   0.965712E+03   0.166682E-17
    LS:    0   0.257926019279749E+00   0.513700493254277E-08   0.102734711435372E-07
 resid(G=0) =  -3.806033266329223E-011
  NLPB:    2   0.257926019279749E+00   0.121993778149608E-04
   LPB:        0.257926019279749E+00   0.121993778149014E-04
   LPB:    0   0.257926019279749E+00   0.121993742562443E-04  -0.459240E-12   0.000000E+00   0.828768E+02  -0.380603E-10
   LPB:    1   0.257926019292788E+00   0.951813676230043E-05   0.163091E-01   0.000000E+00   0.658680E+03   0.261064E-26
   LPB:    2   0.257926019302375E+00   0.133094358483545E-04   0.258690E-01   0.463589E+00   0.306977E+03   0.599956E-20
   LPB:    3   0.257926019309255E+00   0.224810671105208E-04   0.180234E-01   0.102994E+01   0.391983E+03  -0.250389E-18
   LPB:    4   0.257926019314184E+00   0.145844663798288E-04   0.135592E-01   0.952283E+00   0.209724E+03  -0.433091E-18
   LPB:    5   0.257926019318690E+00   0.216344667604545E-04   0.163678E-01   0.757366E+00   0.584231E+03  -0.453197E-18
   LPB:    6   0.257926019322529E+00   0.170947672388942E-04   0.101259E-01   0.137710E+01   0.373449E+03  -0.500609E-18
   LPB:    7   0.257926019327236E+00   0.996514411762023E-05   0.146135E-01   0.849471E+00   0.386483E+03  -0.571847E-18
   LPB:    8   0.257926019332234E+00   0.548274637327459E-05   0.225552E-01   0.688080E+00   0.316273E+03  -0.648724E-18
   LPB:    9   0.257926019335339E+00   0.436910382918383E-05   0.248847E-01   0.563060E+00   0.960183E+03  -0.761176E-18
   LPB:   10   0.257926019337348E+00   0.564951081859857E-05   0.237821E-01   0.677192E+00   0.301194E+03  -0.807212E-18
   LPB:   11   0.257926019338975E+00   0.348561192942604E-05   0.278965E-01   0.690200E+00   0.111031E+03  -0.708731E-18
   LPB:   12   0.257926019339956E+00   0.316523118675414E-05   0.247773E-01   0.678531E+00   0.340707E+03  -0.778353E-18
   LPB:   13   0.257926019340640E+00   0.352251217129907E-05   0.222574E-01   0.776754E+00   0.502509E+03  -0.675485E-18
   LPB:   14   0.257926019341403E+00   0.291180597978846E-05   0.241088E-01   0.102922E+01   0.643727E+03  -0.599253E-18
   LPB:   15   0.257926019341830E+00   0.168565726549472E-05   0.176240E-01   0.767295E+00   0.552757E+03  -0.533138E-18
   LPB:   16   0.257926019342047E+00   0.266199308581399E-05   0.225379E-01   0.395207E+00   0.247976E+03  -0.490877E-18
   LPB:   17   0.257926019342119E+00   0.325961396760596E-05   0.921857E-02   0.824211E+00   0.261127E+03  -0.481639E-18
   LPB:   18   0.257926019342259E+00   0.975767873923824E-06   0.158999E-01   0.110919E+01   0.387061E+03  -0.474706E-18
    LS:    0   0.257926019342218E+00   0.624693075046423E-10   0.125019962647610E-09
 resid(G=0) =  -4.923561558456413E-013
  NLPB:    3   0.257926019342218E+00   0.975738260371127E-06
  Finished solving NLPB equations
 End minimization
 Ecorr=   2064.28527361096     
 A_corr=  0.468845358806248     
 Ecorr_band=  -2063.81642825215     
 End Solvation calculations
RMM:  30    -0.194779394265E+03   -0.25016E-03   -0.35246E-06  7503   0.168E-03    0.344E-01
deltaQ =   3.162953E-06
 Dsol_rc =      -0.01657486     -0.00952931     -0.06499654
 Dele =       0.00000000      0.00000000     -0.07652815
alpha =   6.000000E-01
DIPOLC =       0.00000000      0.00000000     -0.14207797
ZVAL =  -1.420780E+00
deltaQ =   3.162953E-06
 Dsol_rc =      -0.01657486     -0.00952931     -0.06499654
 Dele =       0.00000000      0.00000000     -0.07652815
alpha =   6.000000E-01
DIPOLC =       0.00000000      0.00000000     -0.14207797
ZVAL =  -1.420780E+00
deltaQ =   3.162953E-06
deltaQ =   3.162953E-06
 Dsol_rc =      -0.01657486     -0.00952931     -0.06499654
 Dele =       0.00000000      0.00000000     -0.07652815
alpha =   6.000000E-01
DIPOLC =       0.00000000      0.00000000     -0.14207797
ZVAL =  -1.420780E+00
deltaQ =   3.162953E-06
 Dsol_rc =      -0.01657486     -0.00952931     -0.06499654
 Dele =       0.00000000      0.00000000     -0.07652815
alpha =   6.000000E-01
DIPOLC =       0.00000000      0.00000000     -0.14207797
ZVAL =  -1.420780E+00
deltaQ =   3.162953E-06
 Dsol_rc =      -0.01657486     -0.00952931     -0.06499654
 Dele =       0.00000000      0.00000000     -0.07652815
alpha =   6.000000E-01
DIPOLC =       0.00000000      0.00000000     -0.14207797
ZVAL =  -1.420780E+00
deltaQ =   3.162953E-06
 Dsol_rc =      -0.01657486     -0.00952931     -0.06499654
 Dele =       0.00000000      0.00000000     -0.07652815
alpha =   6.000000E-01
DIPOLC =       0.00000000      0.00000000     -0.14207797
ZVAL =  -1.420780E+00
deltaQ =   3.162953E-06
 Dsol_rc =      -0.01657486     -0.00952931     -0.06499654
 Dele =       0.00000000      0.00000000     -0.07652815
alpha =   6.000000E-01
DIPOLC =       0.00000000      0.00000000     -0.14207797
ZVAL =  -1.420780E+00
deltaQ =   3.162953E-06
 Dsol_rc =      -0.01657486     -0.00952931     -0.06499654
 Dele =       0.00000000      0.00000000     -0.07652815
alpha =   6.000000E-01
DIPOLC =       0.00000000      0.00000000     -0.14207797
ZVAL =  -1.420780E+00
deltaQ =   3.162953E-06
 Dsol_rc =      -0.01657486     -0.00952931     -0.06499654
 Dele =       0.00000000      0.00000000     -0.07652815
alpha =   6.000000E-01
DIPOLC =       0.00000000      0.00000000     -0.14207797
ZVAL =  -1.420780E+00
deltaQ =   3.162953E-06
 Dsol_rc =      -0.01657486     -0.00952931     -0.06499654
 Dele =       0.00000000      0.00000000     -0.07652815
alpha =   6.000000E-01
DIPOLC =       0.00000000      0.00000000     -0.14207797
ZVAL =  -1.420780E+00
deltaQ =   3.162953E-06
 Dsol_rc =      -0.01657486     -0.00952931     -0.06499654
 Dele =       0.00000000      0.00000000     -0.07652815
alpha =   6.000000E-01
DIPOLC =       0.00000000      0.00000000     -0.14207797
ZVAL =  -1.420780E+00
deltaQ =   3.162953E-06
 Dsol_rc =      -0.01657486     -0.00952931     -0.06499654
 Dele =       0.00000000      0.00000000     -0.07652815
alpha =   6.000000E-01
DIPOLC =       0.00000000      0.00000000     -0.14207797
ZVAL =  -1.420780E+00
deltaQ =   3.162953E-06
 Dsol_rc =      -0.01657486     -0.00952931     -0.06499654
 Dele =       0.00000000      0.00000000     -0.07652815
alpha =   6.000000E-01
DIPOLC =       0.00000000      0.00000000     -0.14207797
ZVAL =  -1.420780E+00
deltaQ =   3.162953E-06
 Dsol_rc =      -0.01657486     -0.00952931     -0.06499654
 Dele =       0.00000000      0.00000000     -0.07652815
alpha =   6.000000E-01
DIPOLC =       0.00000000      0.00000000     -0.14207797
ZVAL =  -1.420780E+00
deltaQ =   3.162953E-06
 Dsol_rc =      -0.01657486     -0.00952931     -0.06499654
 Dele =       0.00000000      0.00000000     -0.07652815
alpha =   6.000000E-01
DIPOLC =       0.00000000      0.00000000     -0.14207797
ZVAL =  -1.420780E+00
 Dsol_rc =      -0.01657486     -0.00952931     -0.06499654
 Dele =       0.00000000      0.00000000     -0.07652815
alpha =   6.000000E-01
DIPOLC =       0.00000000      0.00000000     -0.14207797
ZVAL =  -1.420780E+00
 Begin Solvation calculations
  rms_SCF =   1.103682094826673E-004 tol =   1.103682094826673E-005
 Begin minimization
 Creating dielectric and ionic cavities
  area:      239.953786961984     
  volume:    3289.52890146486     
  A_cav:    0.210919378739584     
  qion_max:     4.88320286951112     
  Solving nonlinear dielectric/ionic screening model
  Starting outer loop
        iter                  A_solv                     rms
 resid(G=0) =   3.284808165887609E-007
  NLPB:    0   0.257817602764754E+00   0.182677527268735E-02
   LPB:        0.257817602764754E+00   0.182677524315453E-02
   LPB:    0   0.257817602764755E+00   0.182670498412788E-02   0.396348E-08   0.000000E+00   0.828769E+02   0.328481E-06
   LPB:    1   0.257817647128131E+00   0.262454800034536E-02   0.222712E-01   0.000000E+00   0.516913E+02  -0.248564E-22
   LPB:    2   0.257817742938713E+00   0.227584262843863E-02   0.216754E-01   0.221904E+01   0.621803E+02  -0.261445E-17
   LPB:    3   0.257818298006117E+00   0.355238931612962E-02   0.852214E-01   0.147350E+01   0.779029E+01  -0.543545E-16
   LPB:    4   0.257818644274097E+00   0.103559168937858E-02   0.162000E-01   0.328172E+01   0.191297E+02  -0.557847E-15
   LPB:    5   0.257818708920663E+00   0.200288623168971E-02   0.152117E-01   0.198825E+00   0.738561E+02  -0.795744E-15
   LPB:    6   0.257818728367137E+00   0.103412916194798E-02   0.653002E-02   0.700741E+00   0.170169E+03  -0.843195E-15
   LPB:    7   0.257818750918653E+00   0.237428034593775E-03   0.160029E-01   0.473206E+00   0.334255E+03  -0.859263E-15
   LPB:    8   0.257818761113954E+00   0.178087098194155E-03   0.283750E-01   0.254969E+00   0.145184E+03  -0.880450E-15
    LS:    0   0.257818761113041E+00   0.115834828667838E-05   0.231669839910806E-05
 resid(G=0) =  -2.544123273162668E-009
  NLPB:    1   0.257818761113041E+00   0.178238295420003E-03
   LPB:        0.257818761113041E+00   0.178238295401846E-03
   LPB:    0   0.257818761113041E+00   0.178242218855144E-03  -0.306976E-10   0.000000E+00   0.828768E+02  -0.254412E-08
   LPB:    1   0.257818764353736E+00   0.138233673712895E-03   0.207419E-01   0.000000E+00   0.192246E+03  -0.211443E-24
   LPB:    2   0.257818766955495E+00   0.207950153175378E-03   0.366745E-01   0.454059E+00   0.380318E+03   0.297482E-18
   LPB:    3   0.257818767911794E+00   0.403181035395496E-03   0.125731E-01   0.107213E+01   0.374848E+03  -0.968311E-18
   LPB:    4   0.257818769012721E+00   0.133959251060567E-03   0.100697E-01   0.143745E+01   0.425568E+03  -0.189358E-17
   LPB:    5   0.257818769935328E+00   0.106076051254254E-03   0.194969E-01   0.432820E+00   0.487152E+03  -0.319802E-17
   LPB:    6   0.257818770392457E+00   0.487508241624981E-04   0.154907E-01   0.623617E+00   0.376410E+03  -0.494697E-17
   LPB:    7   0.257818770633082E+00   0.645248431185930E-04   0.230963E-01   0.353044E+00   0.354811E+03  -0.536763E-17
   LPB:    8   0.257818770838713E+00   0.127774164860530E-03   0.206586E-01   0.955410E+00   0.124135E+03  -0.589748E-17
   LPB:    9   0.257818771002168E+00   0.980420228742616E-04   0.164408E-01   0.998814E+00   0.212595E+03  -0.741863E-17
   LPB:   10   0.257818771134603E+00   0.329875329743937E-04   0.135408E-01   0.983751E+00   0.273149E+03  -0.746092E-17
   LPB:   11   0.257818771242143E+00   0.244330999979027E-04   0.314819E-01   0.349264E+00   0.263509E+03  -0.777409E-17
   LPB:   12   0.257818771287005E+00   0.304470402388250E-04   0.197300E-01   0.665633E+00   0.251730E+03  -0.869401E-17
   LPB:   13   0.257818771327744E+00   0.175231707851824E-04   0.199976E-01   0.895974E+00   0.410571E+03  -0.908129E-17
    LS:    0   0.257818771328101E+00   0.102150601311024E-07   0.204294076649933E-07
 resid(G=0) =  -3.265399062257757E-011
  NLPB:    2   0.257818771328101E+00   0.175183501619587E-04
   LPB:        0.257818771328101E+00   0.175183501619282E-04
   LPB:    0   0.257818771328101E+00   0.175183423561133E-04  -0.394006E-12   0.000000E+00   0.828768E+02  -0.326540E-10
   LPB:    1   0.257818771350915E+00   0.185529633552975E-04   0.153744E-01   0.000000E+00   0.604096E+03  -0.136395E-27
   LPB:    2   0.257818771366787E+00   0.170254077395895E-04   0.194941E-01   0.548661E+00   0.436186E+03  -0.115179E-18
   LPB:    3   0.257818771386205E+00   0.385115877295168E-04   0.263045E-01   0.906685E+00   0.515088E+03  -0.181392E-18
   LPB:    4   0.257818771394187E+00   0.252183266115646E-04   0.739272E-02   0.146254E+01   0.211901E+03  -0.326275E-18
   LPB:    5   0.257818771411902E+00   0.174745825442089E-04   0.238695E-01   0.687436E+00   0.795218E+02  -0.444381E-18
   LPB:    6   0.257818771423181E+00   0.318777741979646E-04   0.188052E-01   0.808130E+00   0.328835E+03  -0.890644E-18
   LPB:    7   0.257818771431512E+00   0.188318626416857E-04   0.138177E-01   0.100520E+01   0.921668E+02  -0.940226E-18
   LPB:    8   0.257818771439011E+00   0.883606760206761E-05   0.178220E-01   0.697878E+00   0.112483E+03  -0.917578E-18
   LPB:    9   0.257818771447888E+00   0.994719739223793E-05   0.277845E-01   0.759340E+00   0.874326E+02  -0.102308E-17
   LPB:   10   0.257818771454192E+00   0.819218317831701E-05   0.197488E-01   0.999090E+00   0.108919E+03  -0.114977E-17
   LPB:   11   0.257818771458911E+00   0.500195581449727E-05   0.207651E-01   0.712011E+00   0.107026E+03  -0.125374E-17
   LPB:   12   0.257818771462370E+00   0.559556392297871E-05   0.257175E-01   0.591806E+00   0.208742E+03  -0.135283E-17
   LPB:   13   0.257818771464438E+00   0.351410240761069E-05   0.246875E-01   0.622603E+00   0.653735E+02  -0.138840E-17
   LPB:   14   0.257818771467160E+00   0.276837792851721E-05   0.391499E-01   0.830366E+00   0.100380E+03  -0.161029E-17
   LPB:   15   0.257818771468679E+00   0.160930544150889E-05   0.214501E-01   0.101804E+01   0.158820E+03  -0.182233E-17
    LS:    0   0.257818771468698E+00   0.140597200548598E-09   0.281155729795837E-09
 resid(G=0) =  -8.709699628184353E-013
  NLPB:    3   0.257818771468698E+00   0.160925199352689E-05
  Finished solving NLPB equations
 End minimization
 Ecorr=   2062.95248076525     
 A_corr=  0.468738150208282     
 Ecorr_band=  -2062.48374261504     
 End Solvation calculations
RMM:  31    -0.194779211749E+03    0.18252E-03   -0.11252E-06  6491   0.104E-03    0.341E-01
deltaQ =   3.162767E-06
 Dsol_rc =      -0.01656771     -0.00952873     -0.07094233
 Dele =       0.00000000      0.00000000     -0.06860947
alpha =   6.000000E-01
DIPOLC =       0.00000000      0.00000000     -0.14056227
ZVAL =  -1.405623E+00
deltaQ =   3.162767E-06
deltaQ =   3.162767E-06
 Dsol_rc =      -0.01656771     -0.00952873     -0.07094233
 Dele =       0.00000000      0.00000000     -0.06860947
alpha =   6.000000E-01
DIPOLC =       0.00000000      0.00000000     -0.14056227
ZVAL =  -1.405623E+00
deltaQ =   3.162767E-06
 Dsol_rc =      -0.01656771     -0.00952873     -0.07094233
 Dele =       0.00000000      0.00000000     -0.06860947
alpha =   6.000000E-01
DIPOLC =       0.00000000      0.00000000     -0.14056227
ZVAL =  -1.405623E+00
deltaQ =   3.162767E-06
 Dsol_rc =      -0.01656771     -0.00952873     -0.07094233
 Dele =       0.00000000      0.00000000     -0.06860947
alpha =   6.000000E-01
DIPOLC =       0.00000000      0.00000000     -0.14056227
ZVAL =  -1.405623E+00
deltaQ =   3.162767E-06
 Dsol_rc =      -0.01656771     -0.00952873     -0.07094233
 Dele =       0.00000000      0.00000000     -0.06860947
alpha =   6.000000E-01
DIPOLC =       0.00000000      0.00000000     -0.14056227
ZVAL =  -1.405623E+00
deltaQ =   3.162767E-06
 Dsol_rc =      -0.01656771     -0.00952873     -0.07094233
 Dele =       0.00000000      0.00000000     -0.06860947
alpha =   6.000000E-01
DIPOLC =       0.00000000      0.00000000     -0.14056227
ZVAL =  -1.405623E+00
deltaQ =   3.162767E-06
 Dsol_rc =      -0.01656771     -0.00952873     -0.07094233
 Dele =       0.00000000      0.00000000     -0.06860947
alpha =   6.000000E-01
DIPOLC =       0.00000000      0.00000000     -0.14056227
ZVAL =  -1.405623E+00
deltaQ =   3.162767E-06
 Dsol_rc =      -0.01656771     -0.00952873     -0.07094233
 Dele =       0.00000000      0.00000000     -0.06860947
alpha =   6.000000E-01
DIPOLC =       0.00000000      0.00000000     -0.14056227
ZVAL =  -1.405623E+00
deltaQ =   3.162767E-06
 Dsol_rc =      -0.01656771     -0.00952873     -0.07094233
 Dele =       0.00000000      0.00000000     -0.06860947
alpha =   6.000000E-01
DIPOLC =       0.00000000      0.00000000     -0.14056227
ZVAL =  -1.405623E+00
deltaQ =   3.162767E-06
 Dsol_rc =      -0.01656771     -0.00952873     -0.07094233
 Dele =       0.00000000      0.00000000     -0.06860947
alpha =   6.000000E-01
DIPOLC =       0.00000000      0.00000000     -0.14056227
ZVAL =  -1.405623E+00
deltaQ =   3.162767E-06
 Dsol_rc =      -0.01656771     -0.00952873     -0.07094233
 Dele =       0.00000000      0.00000000     -0.06860947
alpha =   6.000000E-01
DIPOLC =       0.00000000      0.00000000     -0.14056227
ZVAL =  -1.405623E+00
deltaQ =   3.162767E-06
 Dsol_rc =      -0.01656771     -0.00952873     -0.07094233
 Dele =       0.00000000      0.00000000     -0.06860947
alpha =   6.000000E-01
DIPOLC =       0.00000000      0.00000000     -0.14056227
ZVAL =  -1.405623E+00
deltaQ =   3.162767E-06
 Dsol_rc =      -0.01656771     -0.00952873     -0.07094233
 Dele =       0.00000000      0.00000000     -0.06860947
alpha =   6.000000E-01
DIPOLC =       0.00000000      0.00000000     -0.14056227
ZVAL =  -1.405623E+00
deltaQ =   3.162767E-06
 Dsol_rc =      -0.01656771     -0.00952873     -0.07094233
 Dele =       0.00000000      0.00000000     -0.06860947
alpha =   6.000000E-01
DIPOLC =       0.00000000      0.00000000     -0.14056227
ZVAL =  -1.405623E+00
deltaQ =   3.162767E-06
 Dsol_rc =      -0.01656771     -0.00952873     -0.07094233
 Dele =       0.00000000      0.00000000     -0.06860947
alpha =   6.000000E-01
DIPOLC =       0.00000000      0.00000000     -0.14056227
ZVAL =  -1.405623E+00
 Dsol_rc =      -0.01656771     -0.00952873     -0.07094233
 Dele =       0.00000000      0.00000000     -0.06860947
alpha =   6.000000E-01
DIPOLC =       0.00000000      0.00000000     -0.14056227
ZVAL =  -1.405623E+00
 Begin Solvation calculations
  rms_SCF =   1.103682094826673E-004 tol =   1.103682094826673E-005
 Begin minimization
 Creating dielectric and ionic cavities
  area:      239.953802975050     
  volume:    3289.52682920731     
  A_cav:    0.210919392815069     
  qion_max:     4.88320870149948     
  Solving nonlinear dielectric/ionic screening model
  Starting outer loop
        iter                  A_solv                     rms
 resid(G=0) =   2.902297044221624E-007
  NLPB:    0   0.257759107446820E+00   0.201592202463329E-02
   LPB:        0.257759107446820E+00   0.201592200374129E-02
   LPB:    0   0.257759107446821E+00   0.201567096972455E-02   0.350194E-08   0.000000E+00   0.828769E+02   0.290230E-06
   LPB:    1   0.257759328670850E+00   0.736456432321315E-02   0.522198E-01   0.000000E+00   0.318703E+02  -0.138024E-22
   LPB:    2   0.257759897937248E+00   0.569427021743075E-02   0.225248E-01   0.596566E+01   0.305713E+02   0.329804E-16
   LPB:    3   0.257761882170323E+00   0.593120068739755E-02   0.486626E-01   0.161340E+01   0.176707E+02   0.241912E-16
   LPB:    4   0.257762434751155E+00   0.145690725862645E-02   0.121713E-01   0.111343E+01   0.489139E+02  -0.151264E-15
   LPB:    5   0.257762498993084E+00   0.283143603167870E-02   0.117799E-01   0.120121E+00   0.274958E+03  -0.157960E-15
   LPB:    6   0.257762532553629E+00   0.572165370901487E-03   0.669151E-02   0.919657E+00   0.336784E+03  -0.159375E-15
   LPB:    7   0.257762556910826E+00   0.199265069297396E-03   0.208218E-01   0.233241E+00   0.950418E+03  -0.161484E-15
    LS:    0   0.257762556925752E+00   0.344947893171632E-05   0.689892801146092E-05
 resid(G=0) =  -1.656395381965936E-009
  NLPB:    1   0.257762556925752E+00   0.199073106847940E-03
   LPB:        0.257762556925752E+00   0.199073106841048E-03
   LPB:    0   0.257762556925752E+00   0.199070835789322E-03  -0.199862E-10   0.000000E+00   0.828768E+02  -0.165640E-08
   LPB:    1   0.257762563915975E+00   0.235669361219961E-03   0.191942E-01   0.000000E+00   0.512826E+03   0.582280E-25
   LPB:    2   0.257762568059161E+00   0.708206848962731E-03   0.232391E-01   0.489548E+00   0.476193E+03   0.593327E-18
   LPB:    3   0.257762570312106E+00   0.277383960792110E-03   0.695160E-02   0.181782E+01   0.345502E+03  -0.173014E-17
   LPB:    4   0.257762573289192E+00   0.202066065562470E-03   0.216197E-01   0.424890E+00   0.475316E+03  -0.328429E-17
   LPB:    5   0.257762574450394E+00   0.100056915221544E-03   0.143430E-01   0.587928E+00   0.283017E+03  -0.568163E-17
   LPB:    6   0.257762575129049E+00   0.121471508178127E-03   0.224274E-01   0.373769E+00   0.297683E+03  -0.445282E-17
   LPB:    7   0.257762575595547E+00   0.198993191575604E-03   0.163936E-01   0.940384E+00   0.162249E+03  -0.566585E-17
   LPB:    8   0.257762576026981E+00   0.148696756777732E-03   0.176204E-01   0.860445E+00   0.253466E+03  -0.766879E-17
   LPB:    9   0.257762576313529E+00   0.467909505784305E-04   0.126748E-01   0.923332E+00   0.202959E+03  -0.767946E-17
   LPB:   10   0.257762576533008E+00   0.149152673048240E-04   0.315104E-01   0.308092E+00   0.439325E+03  -0.799371E-17
    LS:    0   0.257762576532339E+00   0.196065868540707E-07   0.392145115228484E-07
 resid(G=0) =  -1.116663012057373E-010
  NLPB:    2   0.257762576532339E+00   0.149294262433428E-04
   LPB:        0.257762576532339E+00   0.149294262429252E-04
   LPB:    0   0.257762576532339E+00   0.149294665175708E-04  -0.134738E-11   0.000000E+00   0.828768E+02  -0.111666E-09
   LPB:    1   0.257762576624227E+00   0.199759877158674E-04   0.207211E-01   0.000000E+00   0.183079E+04  -0.133698E-26
   LPB:    2   0.257762576703337E+00   0.505020128193432E-04   0.303989E-01   0.586847E+00   0.856913E+03  -0.102514E-18
   LPB:    3   0.257762576763610E+00   0.510762560732524E-04   0.152994E-01   0.151384E+01   0.346251E+03  -0.214378E-18
   LPB:    4   0.257762576809281E+00   0.541615730650075E-04   0.165666E-01   0.699758E+00   0.344595E+03  -0.346071E-18
   LPB:    5   0.257762576846471E+00   0.492489396963297E-04   0.127104E-01   0.106139E+01   0.445574E+03  -0.319416E-18
   LPB:    6   0.257762576870002E+00   0.521003132625189E-04   0.101152E-01   0.795007E+00   0.324276E+03  -0.473258E-18
   LPB:    7   0.257762576914706E+00   0.202768100864657E-04   0.181907E-01   0.105645E+01   0.388233E+03  -0.605302E-18
   LPB:    8   0.257762576947862E+00   0.239340526234224E-04   0.212943E-01   0.633595E+00   0.316649E+03  -0.635181E-18
   LPB:    9   0.257762576970621E+00   0.152478839733519E-04   0.210235E-01   0.695241E+00   0.161526E+03  -0.528414E-18
   LPB:   10   0.257762576987490E+00   0.137174538724406E-04   0.310466E-01   0.501923E+00   0.199228E+03  -0.101503E-17
   LPB:   11   0.257762577000702E+00   0.174168568496614E-04   0.213969E-01   0.113642E+01   0.274217E+03  -0.190754E-17
   LPB:   12   0.257762577012436E+00   0.631681575165167E-05   0.196229E-01   0.968356E+00   0.262139E+03  -0.254649E-17
   LPB:   13   0.257762577016423E+00   0.378128063360227E-05   0.206837E-01   0.322413E+00   0.545196E+03  -0.333083E-17
   LPB:   14   0.257762577019766E+00   0.430479032833089E-05   0.323978E-01   0.535221E+00   0.258999E+03  -0.367345E-17
   LPB:   15   0.257762577022246E+00   0.778398294596493E-05   0.256998E-01   0.935057E+00   0.397111E+03  -0.394534E-17
   LPB:   16   0.257762577023387E+00   0.142243598607067E-04   0.123669E-01   0.956975E+00   0.254678E+03  -0.415459E-17
   LPB:   17   0.257762577024852E+00   0.571713184345914E-05   0.107226E-01   0.147932E+01   0.260196E+03  -0.428644E-17
   LPB:   18   0.257762577027024E+00   0.266651332511377E-05   0.384198E-01   0.413856E+00   0.646496E+02  -0.445922E-17
   LPB:   19   0.257762577028446E+00   0.319903824026700E-05   0.294384E-01   0.854844E+00   0.151583E+03  -0.455655E-17
   LPB:   20   0.257762577029263E+00   0.143675851152924E-05   0.205620E-01   0.822399E+00   0.273772E+03  -0.466658E-17
    LS:    0   0.257762577029360E+00   0.497021201972814E-09   0.993849485609157E-09
 resid(G=0) =  -1.099467739074100E-012
  NLPB:    3   0.257762577029360E+00   0.143721736432393E-05
  Finished solving NLPB equations
 End minimization
 Ecorr=   2062.02818971727     
 A_corr=  0.468681969844429     
 Ecorr_band=  -2061.55950774742     
 End Solvation calculations
RMM:  32    -0.194779394567E+03   -0.18282E-03   -0.20512E-06  7115   0.122E-03    0.346E-01
deltaQ =   3.162757E-06
 Dsol_rc =      -0.01658806     -0.00952770     -0.07654444
 Dele =       0.00000000      0.00000000     -0.06753064
alpha =   3.000000E-01
DIPOLC =       0.00000000      0.00000000     -0.14161611
ZVAL =  -1.416161E+00
deltaQ =   3.162757E-06
deltaQ =   3.162757E-06
 Dsol_rc =      -0.01658806     -0.00952770     -0.07654444
 Dele =       0.00000000      0.00000000     -0.06753064
alpha =   3.000000E-01
DIPOLC =       0.00000000      0.00000000     -0.14161611
ZVAL =  -1.416161E+00
deltaQ =   3.162757E-06
 Dsol_rc =      -0.01658806     -0.00952770     -0.07654444
 Dele =       0.00000000      0.00000000     -0.06753064
alpha =   3.000000E-01
DIPOLC =       0.00000000      0.00000000     -0.14161611
ZVAL =  -1.416161E+00
deltaQ =   3.162757E-06
 Dsol_rc =      -0.01658806     -0.00952770     -0.07654444
 Dele =       0.00000000      0.00000000     -0.06753064
alpha =   3.000000E-01
DIPOLC =       0.00000000      0.00000000     -0.14161611
ZVAL =  -1.416161E+00
deltaQ =   3.162757E-06
 Dsol_rc =      -0.01658806     -0.00952770     -0.07654444
 Dele =       0.00000000      0.00000000     -0.06753064
alpha =   3.000000E-01
DIPOLC =       0.00000000      0.00000000     -0.14161611
ZVAL =  -1.416161E+00
deltaQ =   3.162757E-06
 Dsol_rc =      -0.01658806     -0.00952770     -0.07654444
 Dele =       0.00000000      0.00000000     -0.06753064
alpha =   3.000000E-01
DIPOLC =       0.00000000      0.00000000     -0.14161611
ZVAL =  -1.416161E+00
deltaQ =   3.162757E-06
 Dsol_rc =      -0.01658806     -0.00952770     -0.07654444
 Dele =       0.00000000      0.00000000     -0.06753064
alpha =   3.000000E-01
DIPOLC =       0.00000000      0.00000000     -0.14161611
ZVAL =  -1.416161E+00
deltaQ =   3.162757E-06
 Dsol_rc =      -0.01658806     -0.00952770     -0.07654444
 Dele =       0.00000000      0.00000000     -0.06753064
alpha =   3.000000E-01
DIPOLC =       0.00000000      0.00000000     -0.14161611
ZVAL =  -1.416161E+00
deltaQ =   3.162757E-06
 Dsol_rc =      -0.01658806     -0.00952770     -0.07654444
 Dele =       0.00000000      0.00000000     -0.06753064
alpha =   3.000000E-01
DIPOLC =       0.00000000      0.00000000     -0.14161611
ZVAL =  -1.416161E+00
deltaQ =   3.162757E-06
 Dsol_rc =      -0.01658806     -0.00952770     -0.07654444
 Dele =       0.00000000      0.00000000     -0.06753064
alpha =   3.000000E-01
DIPOLC =       0.00000000      0.00000000     -0.14161611
ZVAL =  -1.416161E+00
deltaQ =   3.162757E-06
 Dsol_rc =      -0.01658806     -0.00952770     -0.07654444
 Dele =       0.00000000      0.00000000     -0.06753064
alpha =   3.000000E-01
DIPOLC =       0.00000000      0.00000000     -0.14161611
ZVAL =  -1.416161E+00
deltaQ =   3.162757E-06
 Dsol_rc =      -0.01658806     -0.00952770     -0.07654444
 Dele =       0.00000000      0.00000000     -0.06753064
alpha =   3.000000E-01
DIPOLC =       0.00000000      0.00000000     -0.14161611
ZVAL =  -1.416161E+00
deltaQ =   3.162757E-06
 Dsol_rc =      -0.01658806     -0.00952770     -0.07654444
 Dele =       0.00000000      0.00000000     -0.06753064
alpha =   3.000000E-01
DIPOLC =       0.00000000      0.00000000     -0.14161611
ZVAL =  -1.416161E+00
deltaQ =   3.162757E-06
 Dsol_rc =      -0.01658806     -0.00952770     -0.07654444
 Dele =       0.00000000      0.00000000     -0.06753064
alpha =   3.000000E-01
DIPOLC =       0.00000000      0.00000000     -0.14161611
ZVAL =  -1.416161E+00
deltaQ =   3.162757E-06
 Dsol_rc =      -0.01658806     -0.00952770     -0.07654444
 Dele =       0.00000000      0.00000000     -0.06753064
alpha =   3.000000E-01
DIPOLC =       0.00000000      0.00000000     -0.14161611
ZVAL =  -1.416161E+00
 Dsol_rc =      -0.01658806     -0.00952770     -0.07654444
 Dele =       0.00000000      0.00000000     -0.06753064
alpha =   3.000000E-01
DIPOLC =       0.00000000      0.00000000     -0.14161611
ZVAL =  -1.416161E+00
 Begin Solvation calculations
  rms_SCF =   1.103682094826673E-004 tol =   1.103682094826673E-005
 Begin minimization
 Creating dielectric and ionic cavities
  area:      239.953794244906     
  volume:    3289.52565326015     
  A_cav:    0.210919385141272     
  qion_max:     4.88321194673769     
  Solving nonlinear dielectric/ionic screening model
  Starting outer loop
        iter                  A_solv                     rms
 resid(G=0) =   1.628886358573389E-007
  NLPB:    0   0.257750505587485E+00   0.448698563726958E-03
   LPB:        0.257750505587485E+00   0.448698534160662E-03
   LPB:    0   0.257750505587485E+00   0.448821972599655E-03   0.196543E-08   0.000000E+00   0.828769E+02   0.162889E-06
   LPB:    1   0.257751747045798E+00   0.785393610112854E-02   0.819240E+00   0.000000E+00   0.168033E+02  -0.840730E-23
   LPB:    2   0.257751954480674E+00   0.143415429222057E-02   0.722793E-02   0.189386E+02   0.789359E+02  -0.824620E-17
   LPB:    3   0.257752006239763E+00   0.116504560429307E-02   0.109861E-01   0.164164E+00   0.273701E+03   0.541212E-18
   LPB:    4   0.257752013039121E+00   0.777218033542265E-03   0.779853E-02   0.185059E+00   0.127954E+03   0.933369E-18
   LPB:    5   0.257752015091099E+00   0.120858330274837E-03   0.589535E-02   0.399216E+00   0.120061E+03   0.149577E-16
   LPB:    6   0.257752016198151E+00   0.584980734316995E-04   0.231066E-01   0.137647E+00   0.805506E+03   0.210967E-16
   LPB:    7   0.257752016634231E+00   0.462447201118536E-04   0.228582E-01   0.398192E+00   0.450481E+03   0.232614E-16
   LPB:    8   0.257752016804506E+00   0.583987661079311E-04   0.225666E-01   0.395514E+00   0.519604E+03   0.232053E-16
   LPB:    9   0.257752016895003E+00   0.246438655440049E-04   0.144319E-01   0.831036E+00   0.314520E+03   0.240039E-16
    LS:    0   0.257752016895092E+00   0.151130760733809E-05   0.302261503492692E-05
 resid(G=0) =  -6.891556769694773E-012
  NLPB:    1   0.257752016895092E+00   0.246436813786399E-04
   LPB:        0.257752016895092E+00   0.246436813786389E-04
   LPB:    0   0.257752016895092E+00   0.246436803023303E-04  -0.831541E-13   0.000000E+00   0.828769E+02  -0.689156E-11
   LPB:    1   0.257752016931566E+00   0.263375852870231E-04   0.148815E-01   0.000000E+00   0.533760E+03  -0.118376E-27
   LPB:    2   0.257752016961236E+00   0.180001708822279E-04   0.199557E-01   0.606614E+00   0.761512E+03  -0.124407E-18
   LPB:    3   0.257752016991507E+00   0.100973577500723E-04   0.273451E-01   0.744565E+00   0.490538E+03  -0.165401E-18
   LPB:    4   0.257752017015094E+00   0.124159060438368E-04   0.295299E-01   0.721536E+00   0.574270E+03  -0.976084E-19
   LPB:    5   0.257752017026950E+00   0.367492329224533E-04   0.222331E-01   0.667678E+00   0.273487E+03  -0.200403E-18
   LPB:    6   0.257752017033603E+00   0.210924030118282E-04   0.739161E-02   0.168767E+01   0.271139E+03  -0.374139E-18
   LPB:    7   0.257752017039956E+00   0.844302043450100E-05   0.146178E-01   0.482859E+00   0.144438E+03  -0.398134E-18
   LPB:    8   0.257752017042822E+00   0.130189250680727E-04   0.163979E-01   0.402097E+00   0.443043E+03  -0.183800E-19
   LPB:    9   0.257752017044699E+00   0.914466046306551E-05   0.127371E-01   0.843431E+00   0.152542E+03   0.979716E-19
   LPB:   10   0.257752017047413E+00   0.462078822172434E-05   0.270307E-01   0.681313E+00   0.778098E+03   0.216541E-18
   LPB:   11   0.257752017049033E+00   0.355613194450913E-05   0.199061E-01   0.810203E+00   0.699717E+03   0.362472E-18
   LPB:   12   0.257752017050146E+00   0.413517519951333E-05   0.213313E-01   0.641579E+00   0.886249E+03   0.373336E-18
   LPB:   13   0.257752017050967E+00   0.235598428403869E-05   0.205093E-01   0.766440E+00   0.334683E+03   0.367356E-18
    LS:    0   0.257752017050971E+00   0.155878143726085E-09   0.311748479448072E-09
 resid(G=0) =  -1.948996519729462E-012
  NLPB:    2   0.257752017050971E+00   0.235575635250383E-05
  Finished solving NLPB equations
 End minimization
 Ecorr=   2061.97125615223     
 A_corr=  0.468671402192243     
 Ecorr_band=  -2061.50258475004     
 End Solvation calculations
RMM:  33    -0.194779248305E+03    0.14626E-03   -0.59136E-07  5855   0.758E-04    0.343E-01
deltaQ =   3.162518E-06
 Dsol_rc =      -0.01656402     -0.00952830     -0.07620557
 Dele =       0.00000000      0.00000000     -0.06659606
alpha =   6.000000E-01
DIPOLC =       0.00000000      0.00000000     -0.14232743
ZVAL =  -1.423274E+00
deltaQ =   3.162518E-06
 Dsol_rc =      -0.01656402     -0.00952830     -0.07620557
 Dele =       0.00000000      0.00000000     -0.06659606
alpha =   6.000000E-01
DIPOLC =       0.00000000      0.00000000     -0.14232743
ZVAL =  -1.423274E+00
deltaQ =   3.162518E-06
deltaQ =   3.162518E-06
 Dsol_rc =      -0.01656402     -0.00952830     -0.07620557
 Dele =       0.00000000      0.00000000     -0.06659606
alpha =   6.000000E-01
DIPOLC =       0.00000000      0.00000000     -0.14232743
ZVAL =  -1.423274E+00
deltaQ =   3.162518E-06
 Dsol_rc =      -0.01656402     -0.00952830     -0.07620557
 Dele =       0.00000000      0.00000000     -0.06659606
alpha =   6.000000E-01
DIPOLC =       0.00000000      0.00000000     -0.14232743
ZVAL =  -1.423274E+00
deltaQ =   3.162518E-06
 Dsol_rc =      -0.01656402     -0.00952830     -0.07620557
 Dele =       0.00000000      0.00000000     -0.06659606
alpha =   6.000000E-01
DIPOLC =       0.00000000      0.00000000     -0.14232743
ZVAL =  -1.423274E+00
deltaQ =   3.162518E-06
 Dsol_rc =      -0.01656402     -0.00952830     -0.07620557
 Dele =       0.00000000      0.00000000     -0.06659606
alpha =   6.000000E-01
DIPOLC =       0.00000000      0.00000000     -0.14232743
ZVAL =  -1.423274E+00
deltaQ =   3.162518E-06
 Dsol_rc =      -0.01656402     -0.00952830     -0.07620557
 Dele =       0.00000000      0.00000000     -0.06659606
alpha =   6.000000E-01
DIPOLC =       0.00000000      0.00000000     -0.14232743
ZVAL =  -1.423274E+00
deltaQ =   3.162518E-06
 Dsol_rc =      -0.01656402     -0.00952830     -0.07620557
 Dele =       0.00000000      0.00000000     -0.06659606
alpha =   6.000000E-01
DIPOLC =       0.00000000      0.00000000     -0.14232743
ZVAL =  -1.423274E+00
deltaQ =   3.162518E-06
 Dsol_rc =      -0.01656402     -0.00952830     -0.07620557
 Dele =       0.00000000      0.00000000     -0.06659606
alpha =   6.000000E-01
DIPOLC =       0.00000000      0.00000000     -0.14232743
ZVAL =  -1.423274E+00
deltaQ =   3.162518E-06
 Dsol_rc =      -0.01656402     -0.00952830     -0.07620557
 Dele =       0.00000000      0.00000000     -0.06659606
alpha =   6.000000E-01
DIPOLC =       0.00000000      0.00000000     -0.14232743
ZVAL =  -1.423274E+00
deltaQ =   3.162518E-06
 Dsol_rc =      -0.01656402     -0.00952830     -0.07620557
 Dele =       0.00000000      0.00000000     -0.06659606
alpha =   6.000000E-01
DIPOLC =       0.00000000      0.00000000     -0.14232743
ZVAL =  -1.423274E+00
deltaQ =   3.162518E-06
 Dsol_rc =      -0.01656402     -0.00952830     -0.07620557
 Dele =       0.00000000      0.00000000     -0.06659606
alpha =   6.000000E-01
DIPOLC =       0.00000000      0.00000000     -0.14232743
ZVAL =  -1.423274E+00
deltaQ =   3.162518E-06
 Dsol_rc =      -0.01656402     -0.00952830     -0.07620557
 Dele =       0.00000000      0.00000000     -0.06659606
alpha =   6.000000E-01
DIPOLC =       0.00000000      0.00000000     -0.14232743
ZVAL =  -1.423274E+00
deltaQ =   3.162518E-06
 Dsol_rc =      -0.01656402     -0.00952830     -0.07620557
 Dele =       0.00000000      0.00000000     -0.06659606
alpha =   6.000000E-01
DIPOLC =       0.00000000      0.00000000     -0.14232743
ZVAL =  -1.423274E+00
deltaQ =   3.162518E-06
 Dsol_rc =      -0.01656402     -0.00952830     -0.07620557
 Dele =       0.00000000      0.00000000     -0.06659606
alpha =   6.000000E-01
DIPOLC =       0.00000000      0.00000000     -0.14232743
ZVAL =  -1.423274E+00
 Dsol_rc =      -0.01656402     -0.00952830     -0.07620557
 Dele =       0.00000000      0.00000000     -0.06659606
alpha =   6.000000E-01
DIPOLC =       0.00000000      0.00000000     -0.14232743
ZVAL =  -1.423274E+00
 Begin Solvation calculations
  rms_SCF =   1.103682094826673E-004 tol =   1.103682094826673E-005
 Begin minimization
 Creating dielectric and ionic cavities
  area:      239.953803408319     
  volume:    3289.51935178825     
  A_cav:    0.210919393195912     
  qion_max:     4.88322948068045     
  Solving nonlinear dielectric/ionic screening model
  Starting outer loop
        iter                  A_solv                     rms
 resid(G=0) =   8.784517096238620E-007
  NLPB:    0   0.257653500544417E+00   0.943345538404863E-03
   LPB:        0.257653500544417E+00   0.943345129393773E-03
   LPB:    0   0.257653500544422E+00   0.944447993931649E-03   0.105994E-07   0.000000E+00   0.828772E+02   0.878452E-06
   LPB:    1   0.257653593323990E+00   0.564416441060141E-02   0.716655E-01   0.000000E+00   0.310157E+02  -0.219983E-22
   LPB:    2   0.257653934000685E+00   0.411761184025499E-02   0.273698E-01   0.961456E+01   0.737525E+01   0.390011E-16
   LPB:    3   0.257654522918281E+00   0.244806411677252E-02   0.296026E-01   0.159828E+01   0.284804E+01   0.101041E-15
   LPB:    4   0.257654638087211E+00   0.151511577058389E-02   0.119714E-01   0.483577E+00   0.156265E+02   0.591385E-16
   LPB:    5   0.257654647636351E+00   0.708610432723364E-03   0.543287E-02   0.182703E+00   0.959178E+02   0.672202E-16
   LPB:    6   0.257654653212828E+00   0.240700742294280E-03   0.103949E-01   0.305213E+00   0.115082E+03   0.679399E-16
   LPB:    7   0.257654656223388E+00   0.527674145757087E-04   0.235624E-01   0.238171E+00   0.240452E+03   0.670785E-16
    LS:    0   0.257654656221612E+00   0.115567719460863E-05   0.231135794185373E-05
 resid(G=0) =  -4.371264045177625E-010
  NLPB:    1   0.257654656221612E+00   0.527564340150899E-04
   LPB:        0.257654656221612E+00   0.527564340132789E-04
   LPB:    0   0.257654656221612E+00   0.527560613219297E-04  -0.527439E-11   0.000000E+00   0.828772E+02  -0.437126E-09
   LPB:    1   0.257654657003856E+00   0.936220906536021E-04   0.205779E-01   0.000000E+00   0.843917E+03   0.321051E-25
   LPB:    2   0.257654657451563E+00   0.115599577325576E-03   0.215911E-01   0.545477E+00   0.194680E+03  -0.356565E-19
   LPB:    3   0.257654657786625E+00   0.190737372478294E-03   0.147123E-01   0.109832E+01   0.173105E+03   0.398995E-20
   LPB:    4   0.257654657977414E+00   0.799826381754281E-04   0.745515E-02   0.112370E+01   0.244245E+03  -0.198066E-18
   LPB:    5   0.257654658140280E+00   0.279599630448569E-04   0.155852E-01   0.408337E+00   0.395924E+03  -0.386313E-18
   LPB:    6   0.257654658218429E+00   0.303852575854531E-04   0.233337E-01   0.320496E+00   0.188966E+03  -0.737772E-18
   LPB:    7   0.257654658279195E+00   0.655725506242206E-04   0.219584E-01   0.826269E+00   0.359727E+03  -0.907183E-18
   LPB:    8   0.257654658321228E+00   0.478993682078655E-04   0.146220E-01   0.103878E+01   0.202445E+03  -0.134781E-17
   LPB:    9   0.257654658348685E+00   0.145925333924138E-04   0.127699E-01   0.747963E+00   0.174254E+03  -0.128647E-17
   LPB:   10   0.257654658369262E+00   0.162863010492005E-04   0.262381E-01   0.364737E+00   0.659655E+03  -0.135642E-17
   LPB:   11   0.257654658382038E+00   0.164375621928898E-04   0.187229E-01   0.870108E+00   0.303936E+03  -0.160674E-17
   LPB:   12   0.257654658395720E+00   0.445231378128802E-05   0.230044E-01   0.871566E+00   0.306450E+03  -0.177428E-17
    LS:    0   0.257654658396006E+00   0.217439422023347E-08   0.434821512736726E-08
 resid(G=0) =  -7.029307691475140E-012
  NLPB:    2   0.257654658396006E+00   0.445309221230457E-05
  Finished solving NLPB equations
 End minimization
 Ecorr=   2061.06638510871     
 A_corr=  0.468574051591919     
 Ecorr_band=  -2060.59781105711     
 End Solvation calculations
RMM:  34    -0.194778801080E+03    0.44722E-03   -0.77212E-06  8570   0.247E-03    0.334E-01
deltaQ =   3.162631E-06
 Dsol_rc =      -0.01659589     -0.00952974     -0.07859144
 Dele =       0.00000000      0.00000000     -0.02785475
alpha =   3.000000E-01
DIPOLC =       0.00000000      0.00000000     -0.13156306
ZVAL =  -1.315631E+00
deltaQ =   3.162631E-06
 Dsol_rc =      -0.01659589     -0.00952974     -0.07859144
 Dele =       0.00000000      0.00000000     -0.02785475
alpha =   3.000000E-01
DIPOLC =       0.00000000      0.00000000     -0.13156306
ZVAL =  -1.315631E+00
deltaQ =   3.162631E-06
deltaQ =   3.162631E-06
 Dsol_rc =      -0.01659589     -0.00952974     -0.07859144
 Dele =       0.00000000      0.00000000     -0.02785475
alpha =   3.000000E-01
DIPOLC =       0.00000000      0.00000000     -0.13156306
ZVAL =  -1.315631E+00
deltaQ =   3.162631E-06
 Dsol_rc =      -0.01659589     -0.00952974     -0.07859144
 Dele =       0.00000000      0.00000000     -0.02785475
alpha =   3.000000E-01
DIPOLC =       0.00000000      0.00000000     -0.13156306
ZVAL =  -1.315631E+00
deltaQ =   3.162631E-06
 Dsol_rc =      -0.01659589     -0.00952974     -0.07859144
 Dele =       0.00000000      0.00000000     -0.02785475
alpha =   3.000000E-01
DIPOLC =       0.00000000      0.00000000     -0.13156306
ZVAL =  -1.315631E+00
deltaQ =   3.162631E-06
 Dsol_rc =      -0.01659589     -0.00952974     -0.07859144
 Dele =       0.00000000      0.00000000     -0.02785475
alpha =   3.000000E-01
DIPOLC =       0.00000000      0.00000000     -0.13156306
ZVAL =  -1.315631E+00
deltaQ =   3.162631E-06
 Dsol_rc =      -0.01659589     -0.00952974     -0.07859144
 Dele =       0.00000000      0.00000000     -0.02785475
alpha =   3.000000E-01
DIPOLC =       0.00000000      0.00000000     -0.13156306
ZVAL =  -1.315631E+00
deltaQ =   3.162631E-06
 Dsol_rc =      -0.01659589     -0.00952974     -0.07859144
 Dele =       0.00000000      0.00000000     -0.02785475
alpha =   3.000000E-01
DIPOLC =       0.00000000      0.00000000     -0.13156306
ZVAL =  -1.315631E+00
deltaQ =   3.162631E-06
 Dsol_rc =      -0.01659589     -0.00952974     -0.07859144
 Dele =       0.00000000      0.00000000     -0.02785475
alpha =   3.000000E-01
DIPOLC =       0.00000000      0.00000000     -0.13156306
ZVAL =  -1.315631E+00
deltaQ =   3.162631E-06
 Dsol_rc =      -0.01659589     -0.00952974     -0.07859144
 Dele =       0.00000000      0.00000000     -0.02785475
alpha =   3.000000E-01
DIPOLC =       0.00000000      0.00000000     -0.13156306
ZVAL =  -1.315631E+00
deltaQ =   3.162631E-06
 Dsol_rc =      -0.01659589     -0.00952974     -0.07859144
 Dele =       0.00000000      0.00000000     -0.02785475
alpha =   3.000000E-01
DIPOLC =       0.00000000      0.00000000     -0.13156306
ZVAL =  -1.315631E+00
deltaQ =   3.162631E-06
 Dsol_rc =      -0.01659589     -0.00952974     -0.07859144
 Dele =       0.00000000      0.00000000     -0.02785475
alpha =   3.000000E-01
DIPOLC =       0.00000000      0.00000000     -0.13156306
ZVAL =  -1.315631E+00
deltaQ =   3.162631E-06
 Dsol_rc =      -0.01659589     -0.00952974     -0.07859144
 Dele =       0.00000000      0.00000000     -0.02785475
alpha =   3.000000E-01
DIPOLC =       0.00000000      0.00000000     -0.13156306
ZVAL =  -1.315631E+00
deltaQ =   3.162631E-06
 Dsol_rc =      -0.01659589     -0.00952974     -0.07859144
 Dele =       0.00000000      0.00000000     -0.02785475
alpha =   3.000000E-01
DIPOLC =       0.00000000      0.00000000     -0.13156306
ZVAL =  -1.315631E+00
deltaQ =   3.162631E-06
 Dsol_rc =      -0.01659589     -0.00952974     -0.07859144
 Dele =       0.00000000      0.00000000     -0.02785475
alpha =   3.000000E-01
DIPOLC =       0.00000000      0.00000000     -0.13156306
ZVAL =  -1.315631E+00
 Dsol_rc =      -0.01659589     -0.00952974     -0.07859144
 Dele =       0.00000000      0.00000000     -0.02785475
alpha =   3.000000E-01
DIPOLC =       0.00000000      0.00000000     -0.13156306
ZVAL =  -1.315631E+00
 Begin Solvation calculations
  rms_SCF =   1.103682094826673E-004 tol =   1.103682094826673E-005
 Begin minimization
 Creating dielectric and ionic cavities
  area:      239.953893042558     
  volume:    3289.50401812280     
  A_cav:    0.210919471984408     
  qion_max:     4.88327161422391     
  Solving nonlinear dielectric/ionic screening model
  Starting outer loop
        iter                  A_solv                     rms
 resid(G=0) =   2.117678153695790E-006
  NLPB:    0   0.256998737097997E+00   0.115960900595392E-01
   LPB:        0.256998737097997E+00   0.115960898661740E-01
   LPB:    0   0.256998737098024E+00   0.115946443605895E-01   0.255518E-07   0.000000E+00   0.828779E+02   0.211768E-05
   LPB:    1   0.257011482374081E+00   0.587874097622876E-01   0.662735E-01   0.000000E+00   0.371416E+02  -0.118412E-21
   LPB:    2   0.257044545642593E+00   0.424060742057547E-01   0.220114E-01   0.781067E+01   0.428265E+02   0.283806E-15
   LPB:    3   0.257140554160542E+00   0.336894188917082E-01   0.433614E-01   0.147404E+01   0.264164E+02   0.560738E-15
   LPB:    4   0.257158888562081E+00   0.561792290861477E-02   0.115996E-01   0.713870E+00   0.107498E+03   0.300066E-15
   LPB:    5   0.257161816345674E+00   0.109288652725575E-01   0.166899E-01   0.110984E+00   0.620089E+03   0.640630E-15
   LPB:    6   0.257162491478968E+00   0.717693863682362E-02   0.672914E-02   0.571933E+00   0.326866E+03   0.689500E-15
   LPB:    7   0.257163304178485E+00   0.135367752675503E-02   0.143754E-01   0.563484E+00   0.856322E+03   0.699375E-15
   LPB:    8   0.257163683988367E+00   0.117970719511024E-02   0.270539E-01   0.248327E+00   0.460574E+03   0.705424E-15
   LPB:    9   0.257163862967304E+00   0.825373353858973E-03   0.293744E-01   0.434008E+00   0.264705E+03   0.718198E-15
    LS:    0   0.257163864016467E+00   0.165126918469705E-03   0.330251738613313E-03
 resid(G=0) =  -6.846931045745297E-008
  NLPB:    1   0.257163864016467E+00   0.821789223795367E-03
   LPB:        0.257163864016467E+00   0.821789220943025E-03
   LPB:    0   0.257163864016467E+00   0.821701453202668E-03  -0.826153E-09   0.000000E+00   0.828773E+02  -0.684693E-07
   LPB:    1   0.257163918257292E+00   0.941927499136315E-03   0.176209E-01   0.000000E+00   0.269648E+03   0.386671E-23
   LPB:    2   0.257163954735762E+00   0.813783119976624E-03   0.187849E-01   0.630853E+00   0.607348E+03  -0.749705E-17
   LPB:    3   0.257163996992614E+00   0.479461457677289E-03   0.262048E-01   0.830402E+00   0.263750E+03  -0.111291E-16
   LPB:    4   0.257164027247534E+00   0.134950535860939E-02   0.294460E-01   0.637167E+00   0.457718E+03  -0.182099E-16
   LPB:    5   0.257164036984683E+00   0.836234922138947E-03   0.687716E-02   0.137801E+01   0.284028E+03  -0.230642E-16
   LPB:    6   0.257164053736597E+00   0.377760221157037E-03   0.197087E-01   0.600322E+00   0.462824E+03  -0.247223E-16
   LPB:    7   0.257164061946135E+00   0.337905879347382E-03   0.169561E-01   0.569622E+00   0.393069E+03  -0.292025E-16
   LPB:    8   0.257164066292118E+00   0.133871049830813E-03   0.157948E-01   0.568302E+00   0.314461E+03  -0.302597E-16
   LPB:    9   0.257164069844929E+00   0.334836456576112E-03   0.325523E-01   0.396659E+00   0.339991E+03  -0.308781E-16
   LPB:   10   0.257164071970982E+00   0.469819325579949E-03   0.126970E-01   0.153420E+01   0.211167E+03  -0.320611E-16
   LPB:   11   0.257164074929504E+00   0.155375628211985E-03   0.213083E-01   0.829188E+00   0.317470E+03  -0.331519E-16
   LPB:   12   0.257164076467117E+00   0.184705426013141E-03   0.230375E-01   0.480711E+00   0.258248E+03  -0.319621E-16
   LPB:   13   0.257164077614970E+00   0.987814893774503E-04   0.229940E-01   0.747930E+00   0.135817E+03  -0.347068E-16
   LPB:   14   0.257164078172022E+00   0.243609059566596E-03   0.189315E-01   0.589437E+00   0.539574E+03  -0.406351E-16
   LPB:   15   0.257164078438694E+00   0.979421820704168E-04   0.679984E-02   0.133281E+01   0.363110E+03  -0.422685E-16
   LPB:   16   0.257164078914229E+00   0.476707730078797E-04   0.273443E-01   0.443441E+00   0.113472E+04  -0.431076E-16
    LS:    0   0.257164078882299E+00   0.214865832237621E-06   0.429795525399885E-06
 resid(G=0) =  -1.251590733830632E-009
  NLPB:    2   0.257164078882299E+00   0.478380653429949E-04
   LPB:        0.257164078882299E+00   0.478380653266222E-04
   LPB:    0   0.257164078882299E+00   0.478386397829177E-04  -0.151017E-10   0.000000E+00   0.828773E+02  -0.125159E-08
   LPB:    1   0.257164079097553E+00   0.578714558268051E-04   0.168522E-01   0.000000E+00   0.591353E+03  -0.958402E-25
   LPB:    2   0.257164079226250E+00   0.142271592078313E-03   0.183717E-01   0.548435E+00   0.332387E+03  -0.305866E-18
   LPB:    3   0.257164079330907E+00   0.521575764381012E-04   0.806470E-02   0.185249E+01   0.391440E+03  -0.114110E-17
   LPB:    4   0.257164079511912E+00   0.380676744488673E-04   0.311637E-01   0.447576E+00   0.417615E+03  -0.189055E-17
   LPB:    5   0.257164079642419E+00   0.441341578183159E-04   0.254638E-01   0.882404E+00   0.397434E+03  -0.314287E-17
   LPB:    6   0.257164079745455E+00   0.618105241457633E-04   0.242247E-01   0.829886E+00   0.250176E+03  -0.514446E-17
   LPB:    7   0.257164079810504E+00   0.583917877448188E-04   0.152937E-01   0.100000E+01   0.403692E+03  -0.721332E-17
   LPB:    8   0.257164079865653E+00   0.315705781720520E-04   0.138355E-01   0.937164E+00   0.368289E+03  -0.843644E-17
   LPB:    9   0.257164079918119E+00   0.223939388074367E-04   0.303608E-01   0.433525E+00   0.223743E+03  -0.967928E-17
   LPB:   10   0.257164079956026E+00   0.284824405064516E-04   0.249902E-01   0.877799E+00   0.552370E+03  -0.104975E-16
   LPB:   11   0.257164079989541E+00   0.146705337867080E-04   0.188076E-01   0.117474E+01   0.300790E+03  -0.113004E-16
   LPB:   12   0.257164080013413E+00   0.107779925751162E-04   0.254015E-01   0.527387E+00   0.462636E+03  -0.122453E-16
   LPB:   13   0.257164080028192E+00   0.874389596233682E-05   0.242852E-01   0.647551E+00   0.619935E+03  -0.130677E-16
   LPB:   14   0.257164080038148E+00   0.126670986260000E-04   0.242425E-01   0.674852E+00   0.608202E+03  -0.137206E-16
   LPB:   15   0.257164080042306E+00   0.221449728518626E-04   0.140210E-01   0.722104E+00   0.360844E+03  -0.141694E-16
   LPB:   16   0.257164080046226E+00   0.163978426310223E-04   0.101300E-01   0.130496E+01   0.315254E+03  -0.143650E-16
   LPB:   17   0.257164080051869E+00   0.898811988882754E-05   0.174623E-01   0.834949E+00   0.307658E+03  -0.145507E-16
   LPB:   18   0.257164080057925E+00   0.290086459632047E-05   0.239138E-01   0.783818E+00   0.421400E+03  -0.148414E-16
    LS:    0   0.257164080057743E+00   0.117544451949669E-08   0.235125316576162E-08
 resid(G=0) =  -7.593994877375110E-012
  NLPB:    3   0.257164080057743E+00   0.290197935261621E-05
  Finished solving NLPB equations
 End minimization
 Ecorr=   2054.94792165649     
 A_corr=  0.468083552042152     
 Ecorr_band=  -2054.47983810445     
 End Solvation calculations
RMM:  35    -0.194779356055E+03   -0.55497E-03   -0.29406E-05 10141   0.441E-03    0.350E-01
deltaQ =   3.162929E-06
 Dsol_rc =      -0.01660408     -0.00952458     -0.11234888
 Dele =       0.00000000      0.00000000      0.00872202
alpha =   6.000000E-01
DIPOLC =       0.00000000      0.00000000     -0.11480134
ZVAL =  -1.148013E+00
deltaQ =   3.162929E-06
deltaQ =   3.162929E-06
 Dsol_rc =      -0.01660408     -0.00952458     -0.11234888
 Dele =       0.00000000      0.00000000      0.00872202
alpha =   6.000000E-01
DIPOLC =       0.00000000      0.00000000     -0.11480134
ZVAL =  -1.148013E+00
deltaQ =   3.162929E-06
 Dsol_rc =      -0.01660408     -0.00952458     -0.11234888
 Dele =       0.00000000      0.00000000      0.00872202
alpha =   6.000000E-01
DIPOLC =       0.00000000      0.00000000     -0.11480134
ZVAL =  -1.148013E+00
deltaQ =   3.162929E-06
 Dsol_rc =      -0.01660408     -0.00952458     -0.11234888
 Dele =       0.00000000      0.00000000      0.00872202
alpha =   6.000000E-01
DIPOLC =       0.00000000      0.00000000     -0.11480134
ZVAL =  -1.148013E+00
deltaQ =   3.162929E-06
 Dsol_rc =      -0.01660408     -0.00952458     -0.11234888
 Dele =       0.00000000      0.00000000      0.00872202
alpha =   6.000000E-01
DIPOLC =       0.00000000      0.00000000     -0.11480134
ZVAL =  -1.148013E+00
deltaQ =   3.162929E-06
 Dsol_rc =      -0.01660408     -0.00952458     -0.11234888
 Dele =       0.00000000      0.00000000      0.00872202
alpha =   6.000000E-01
DIPOLC =       0.00000000      0.00000000     -0.11480134
ZVAL =  -1.148013E+00
deltaQ =   3.162929E-06
 Dsol_rc =      -0.01660408     -0.00952458     -0.11234888
 Dele =       0.00000000      0.00000000      0.00872202
alpha =   6.000000E-01
DIPOLC =       0.00000000      0.00000000     -0.11480134
ZVAL =  -1.148013E+00
deltaQ =   3.162929E-06
 Dsol_rc =      -0.01660408     -0.00952458     -0.11234888
 Dele =       0.00000000      0.00000000      0.00872202
alpha =   6.000000E-01
DIPOLC =       0.00000000      0.00000000     -0.11480134
ZVAL =  -1.148013E+00
deltaQ =   3.162929E-06
 Dsol_rc =      -0.01660408     -0.00952458     -0.11234888
 Dele =       0.00000000      0.00000000      0.00872202
alpha =   6.000000E-01
DIPOLC =       0.00000000      0.00000000     -0.11480134
ZVAL =  -1.148013E+00
deltaQ =   3.162929E-06
 Dsol_rc =      -0.01660408     -0.00952458     -0.11234888
 Dele =       0.00000000      0.00000000      0.00872202
alpha =   6.000000E-01
DIPOLC =       0.00000000      0.00000000     -0.11480134
ZVAL =  -1.148013E+00
deltaQ =   3.162929E-06
 Dsol_rc =      -0.01660408     -0.00952458     -0.11234888
 Dele =       0.00000000      0.00000000      0.00872202
alpha =   6.000000E-01
DIPOLC =       0.00000000      0.00000000     -0.11480134
ZVAL =  -1.148013E+00
deltaQ =   3.162929E-06
 Dsol_rc =      -0.01660408     -0.00952458     -0.11234888
 Dele =       0.00000000      0.00000000      0.00872202
alpha =   6.000000E-01
DIPOLC =       0.00000000      0.00000000     -0.11480134
ZVAL =  -1.148013E+00
deltaQ =   3.162929E-06
 Dsol_rc =      -0.01660408     -0.00952458     -0.11234888
 Dele =       0.00000000      0.00000000      0.00872202
alpha =   6.000000E-01
DIPOLC =       0.00000000      0.00000000     -0.11480134
ZVAL =  -1.148013E+00
deltaQ =   3.162929E-06
 Dsol_rc =      -0.01660408     -0.00952458     -0.11234888
 Dele =       0.00000000      0.00000000      0.00872202
alpha =   6.000000E-01
DIPOLC =       0.00000000      0.00000000     -0.11480134
ZVAL =  -1.148013E+00
deltaQ =   3.162929E-06
 Dsol_rc =      -0.01660408     -0.00952458     -0.11234888
 Dele =       0.00000000      0.00000000      0.00872202
alpha =   6.000000E-01
DIPOLC =       0.00000000      0.00000000     -0.11480134
ZVAL =  -1.148013E+00
 Dsol_rc =      -0.01660408     -0.00952458     -0.11234888
 Dele =       0.00000000      0.00000000      0.00872202
alpha =   6.000000E-01
DIPOLC =       0.00000000      0.00000000     -0.11480134
ZVAL =  -1.148013E+00
 Begin Solvation calculations
  rms_SCF =   1.103682094826673E-004 tol =   1.103682094826673E-005
 Begin minimization
 Creating dielectric and ionic cavities
  area:      239.954054009074     
  volume:    3289.46146485742     
  A_cav:    0.210919613473976     
  qion_max:     4.88339036123844     
  Solving nonlinear dielectric/ionic screening model
  Starting outer loop
        iter                  A_solv                     rms
 resid(G=0) =   6.202869650626108E-006
  NLPB:    0   0.255748037396727E+00   0.153746871758517E-01
   LPB:        0.255748037396727E+00   0.153746859245874E-01
   LPB:    0   0.255748037396959E+00   0.153727192978580E-01   0.748422E-07   0.000000E+00   0.828793E+02   0.620287E-05
   LPB:    1   0.255780831954199E+00   0.977410227465663E-01   0.739487E-01   0.000000E+00   0.486272E+02  -0.297560E-21
   LPB:    2   0.255868636401025E+00   0.670437804493664E-01   0.220385E-01   0.898385E+01   0.691144E+02   0.345785E-15
   LPB:    3   0.256096989528610E+00   0.407332204646332E-01   0.413947E-01   0.138462E+01   0.247229E+02   0.615842E-15
   LPB:    4   0.256128545493748E+00   0.734312101362865E-02   0.115275E-01   0.496229E+00   0.239837E+03  -0.220757E-14
   LPB:    5   0.256134046350291E+00   0.425943167829198E-02   0.174573E-01   0.115109E+00   0.694038E+03  -0.198818E-14
   LPB:    6   0.256136031466712E+00   0.729135074566179E-02   0.201599E-01   0.312496E+00   0.643182E+03  -0.198048E-14
   LPB:    7   0.256136408962453E+00   0.657060562552042E-02   0.741496E-02   0.517017E+00   0.315212E+03  -0.201506E-14
   LPB:    8   0.256137019409288E+00   0.154372887092190E-02   0.155360E-01   0.771800E+00   0.424916E+03  -0.202482E-14
   LPB:    9   0.256137335577457E+00   0.801841891919431E-03   0.300075E-01   0.268151E+00   0.249125E+03  -0.202304E-14
    LS:    0   0.256137332815429E+00   0.389295418701974E-03   0.778596361459350E-03
 resid(G=0) =  -1.457035988666755E-007
  NLPB:    1   0.256137332815429E+00   0.793734962142252E-03
   LPB:        0.256137332815429E+00   0.793734948769060E-03
   LPB:    0   0.256137332815429E+00   0.793497193260992E-03  -0.175804E-08   0.000000E+00   0.828784E+02  -0.145704E-06
   LPB:    1   0.256137437839224E+00   0.864080945337513E-03   0.214999E-01   0.000000E+00   0.285144E+03  -0.444700E-23
   LPB:    2   0.256137512907049E+00   0.156649882241605E-02   0.306037E-01   0.502145E+00   0.370901E+03  -0.193796E-16
   LPB:    3   0.256137552755427E+00   0.201483330391626E-02   0.118381E-01   0.137229E+01   0.308839E+03  -0.404943E-16
   LPB:    4   0.256137584326358E+00   0.145938263008564E-02   0.969217E-02   0.967697E+00   0.350566E+03  -0.523077E-16
   LPB:    5   0.256137626821980E+00   0.415938086907484E-03   0.168082E-01   0.776168E+00   0.446786E+03  -0.621255E-16
   LPB:    6   0.256137657487475E+00   0.249436800587009E-03   0.289482E-01   0.418993E+00   0.402307E+03  -0.807202E-16
   LPB:    7   0.256137672921623E+00   0.243318326414501E-03   0.240678E-01   0.605365E+00   0.417915E+03  -0.101205E-15
   LPB:    8   0.256137678428277E+00   0.319212936532153E-03   0.213578E-01   0.402054E+00   0.221979E+03  -0.111098E-15
   LPB:    9   0.256137684065634E+00   0.517098659737573E-03   0.248932E-01   0.878342E+00   0.150519E+03  -0.115503E-15
   LPB:   10   0.256137688340380E+00   0.510177829537163E-03   0.188209E-01   0.100294E+01   0.309714E+03  -0.127279E-15
   LPB:   11   0.256137691609109E+00   0.203693715181252E-03   0.130824E-01   0.110007E+01   0.313980E+03  -0.131237E-15
   LPB:   12   0.256137693703058E+00   0.275710996412629E-03   0.179110E-01   0.467903E+00   0.468592E+03  -0.136136E-15
   LPB:   13   0.256137695484396E+00   0.108373085106822E-03   0.190788E-01   0.798632E+00   0.209991E+03  -0.139505E-15
   LPB:   14   0.256137696474226E+00   0.323623107608634E-03   0.206032E-01   0.514556E+00   0.430697E+03  -0.144909E-15
   LPB:   15   0.256137696906399E+00   0.115358313382167E-03   0.649432E-02   0.138515E+01   0.353373E+03  -0.147225E-15
   LPB:   16   0.256137697742447E+00   0.492404507041107E-04   0.307328E-01   0.408795E+00   0.149896E+04  -0.148490E-15
    LS:    0   0.256137697911561E+00   0.365096131882403E-06   0.729854036342466E-06
 resid(G=0) =  -9.835997433205179E-010
  NLPB:    2   0.256137697911561E+00   0.495070348852473E-04
   LPB:        0.256137697911561E+00   0.495070348754763E-04
   LPB:    0   0.256137697911561E+00   0.495072536411421E-04  -0.118680E-10   0.000000E+00   0.828784E+02  -0.983600E-09
   LPB:    1   0.256137698280704E+00   0.651916169225302E-04   0.184814E-01   0.000000E+00   0.842006E+03   0.609819E-25
   LPB:    2   0.256137698480886E+00   0.170449332423800E-03   0.180529E-01   0.555160E+00   0.367361E+03   0.581090E-19
   LPB:    3   0.256137698638736E+00   0.764206400533682E-04   0.824283E-02   0.172699E+01   0.387652E+03  -0.765794E-18
   LPB:    4   0.256137698895869E+00   0.441381183466097E-04   0.251435E-01   0.534028E+00   0.648530E+03  -0.144838E-17
   LPB:    5   0.256137699108398E+00   0.549026707718562E-04   0.253341E-01   0.820313E+00   0.780710E+03  -0.284848E-17
   LPB:    6   0.256137699233172E+00   0.925154788369921E-04   0.164651E-01   0.903331E+00   0.475754E+03  -0.460762E-17
   LPB:    7   0.256137699375009E+00   0.826854412069339E-04   0.178052E-01   0.105120E+01   0.150807E+03  -0.597034E-17
   LPB:    8   0.256137699461111E+00   0.315434918025025E-04   0.140455E-01   0.769541E+00   0.481812E+03  -0.761682E-17
   LPB:    9   0.256137699544757E+00   0.169988080120696E-04   0.242021E-01   0.563786E+00   0.669168E+03  -0.856773E-17
   LPB:   10   0.256137699613061E+00   0.346889195754542E-04   0.299612E-01   0.659630E+00   0.765540E+03  -0.973017E-17
   LPB:   11   0.256137699671526E+00   0.234654488285412E-04   0.242037E-01   0.105956E+01   0.139987E+03  -0.106555E-16
   LPB:   12   0.256137699711442E+00   0.158939998996748E-04   0.258999E-01   0.638017E+00   0.306099E+03  -0.121223E-16
   LPB:   13   0.256137699733131E+00   0.243850078440917E-04   0.222712E-01   0.631914E+00   0.387776E+03  -0.134352E-16
   LPB:   14   0.256137699744068E+00   0.362565653367118E-04   0.126076E-01   0.890779E+00   0.348210E+03  -0.143898E-16
   LPB:   15   0.256137699752396E+00   0.166406839432798E-04   0.857006E-02   0.112011E+01   0.422106E+03  -0.148675E-16
   LPB:   16   0.256137699760534E+00   0.113848799117212E-04   0.177396E-01   0.472132E+00   0.384919E+03  -0.152497E-16
   LPB:   17   0.256137699769541E+00   0.815008812745759E-05   0.265729E-01   0.738811E+00   0.241075E+03  -0.156703E-16
   LPB:   18   0.256137699779720E+00   0.533469928909224E-05   0.288386E-01   0.104132E+01   0.378009E+03  -0.163223E-16
   LPB:   19   0.256137699782739E+00   0.324901117588026E-05   0.213832E-01   0.400039E+00   0.784540E+03  -0.170734E-16
    LS:    0   0.256137699782794E+00   0.187123327943794E-08   0.374235668923608E-08
 resid(G=0) =  -8.882158897272063E-012
  NLPB:    3   0.256137699782794E+00   0.324992441042774E-05
  Finished solving NLPB equations
 End minimization
 Ecorr=   2044.63620624605     
 A_corr=  0.467057313256770     
 Ecorr_band=  -2044.16914893280     
 End Solvation calculations
RMM:  36    -0.194778895452E+03    0.46060E-03   -0.30959E-05 10605   0.475E-03    0.343E-01
deltaQ =   3.162237E-06
 Dsol_rc =      -0.01661789     -0.00952215     -0.16105342
 Dele =       0.00000000      0.00000000      0.06145302
alpha =   6.000000E-01
DIPOLC =       0.00000000      0.00000000     -0.10568077
ZVAL =  -1.056808E+00
deltaQ =   3.162237E-06
deltaQ =   3.162237E-06
 Dsol_rc =      -0.01661789     -0.00952215     -0.16105342
 Dele =       0.00000000      0.00000000      0.06145302
alpha =   6.000000E-01
DIPOLC =       0.00000000      0.00000000     -0.10568077
ZVAL =  -1.056808E+00
deltaQ =   3.162237E-06
 Dsol_rc =      -0.01661789     -0.00952215     -0.16105342
 Dele =       0.00000000      0.00000000      0.06145302
alpha =   6.000000E-01
DIPOLC =       0.00000000      0.00000000     -0.10568077
ZVAL =  -1.056808E+00
deltaQ =   3.162237E-06
 Dsol_rc =      -0.01661789     -0.00952215     -0.16105342
 Dele =       0.00000000      0.00000000      0.06145302
alpha =   6.000000E-01
DIPOLC =       0.00000000      0.00000000     -0.10568077
ZVAL =  -1.056808E+00
deltaQ =   3.162237E-06
 Dsol_rc =      -0.01661789     -0.00952215     -0.16105342
 Dele =       0.00000000      0.00000000      0.06145302
alpha =   6.000000E-01
DIPOLC =       0.00000000      0.00000000     -0.10568077
ZVAL =  -1.056808E+00
deltaQ =   3.162237E-06
 Dsol_rc =      -0.01661789     -0.00952215     -0.16105342
 Dele =       0.00000000      0.00000000      0.06145302
alpha =   6.000000E-01
DIPOLC =       0.00000000      0.00000000     -0.10568077
ZVAL =  -1.056808E+00
deltaQ =   3.162237E-06
 Dsol_rc =      -0.01661789     -0.00952215     -0.16105342
 Dele =       0.00000000      0.00000000      0.06145302
alpha =   6.000000E-01
DIPOLC =       0.00000000      0.00000000     -0.10568077
ZVAL =  -1.056808E+00
deltaQ =   3.162237E-06
 Dsol_rc =      -0.01661789     -0.00952215     -0.16105342
 Dele =       0.00000000      0.00000000      0.06145302
alpha =   6.000000E-01
DIPOLC =       0.00000000      0.00000000     -0.10568077
ZVAL =  -1.056808E+00
deltaQ =   3.162237E-06
 Dsol_rc =      -0.01661789     -0.00952215     -0.16105342
 Dele =       0.00000000      0.00000000      0.06145302
alpha =   6.000000E-01
DIPOLC =       0.00000000      0.00000000     -0.10568077
ZVAL =  -1.056808E+00
deltaQ =   3.162237E-06
 Dsol_rc =      -0.01661789     -0.00952215     -0.16105342
 Dele =       0.00000000      0.00000000      0.06145302
alpha =   6.000000E-01
DIPOLC =       0.00000000      0.00000000     -0.10568077
ZVAL =  -1.056808E+00
deltaQ =   3.162237E-06
 Dsol_rc =      -0.01661789     -0.00952215     -0.16105342
 Dele =       0.00000000      0.00000000      0.06145302
alpha =   6.000000E-01
DIPOLC =       0.00000000      0.00000000     -0.10568077
ZVAL =  -1.056808E+00
deltaQ =   3.162237E-06
 Dsol_rc =      -0.01661789     -0.00952215     -0.16105342
 Dele =       0.00000000      0.00000000      0.06145302
alpha =   6.000000E-01
DIPOLC =       0.00000000      0.00000000     -0.10568077
ZVAL =  -1.056808E+00
deltaQ =   3.162237E-06
 Dsol_rc =      -0.01661789     -0.00952215     -0.16105342
 Dele =       0.00000000      0.00000000      0.06145302
alpha =   6.000000E-01
DIPOLC =       0.00000000      0.00000000     -0.10568077
ZVAL =  -1.056808E+00
deltaQ =   3.162237E-06
 Dsol_rc =      -0.01661789     -0.00952215     -0.16105342
 Dele =       0.00000000      0.00000000      0.06145302
alpha =   6.000000E-01
DIPOLC =       0.00000000      0.00000000     -0.10568077
ZVAL =  -1.056808E+00
deltaQ =   3.162237E-06
 Dsol_rc =      -0.01661789     -0.00952215     -0.16105342
 Dele =       0.00000000      0.00000000      0.06145302
alpha =   6.000000E-01
DIPOLC =       0.00000000      0.00000000     -0.10568077
ZVAL =  -1.056808E+00
 Dsol_rc =      -0.01661789     -0.00952215     -0.16105342
 Dele =       0.00000000      0.00000000      0.06145302
alpha =   6.000000E-01
DIPOLC =       0.00000000      0.00000000     -0.10568077
ZVAL =  -1.056808E+00
 Begin Solvation calculations
  rms_SCF =   1.103682094826673E-004 tol =   1.103682094826673E-005
 Begin minimization
 Creating dielectric and ionic cavities
  area:      239.954399999806     
  volume:    3289.38640055351     
  A_cav:    0.210919917599830     
  qion_max:     4.88360053631560     
  Solving nonlinear dielectric/ionic screening model
  Starting outer loop
        iter                  A_solv                     rms
 resid(G=0) =   1.155771865320177E-005
  NLPB:    0   0.254090023820521E+00   0.193288882727957E-01
   LPB:        0.254090023820521E+00   0.193288848173235E-01
   LPB:    0   0.254090023821327E+00   0.193276671608612E-01   0.139448E-06   0.000000E+00   0.828820E+02   0.115577E-04
   LPB:    1   0.254095471888812E+00   0.291721821470774E-01   0.221080E-01   0.000000E+00   0.584739E+02   0.896259E-21
   LPB:    2   0.254105863114923E+00   0.248414892476260E-01   0.200278E-01   0.210543E+01   0.857681E+02   0.295051E-16
   LPB:    3   0.254174750747468E+00   0.409457691915734E-01   0.976528E-01   0.135964E+01   0.591867E+01  -0.227852E-15
   LPB:    4   0.254214191877547E+00   0.103295511843751E-01   0.154289E-01   0.362375E+01   0.166671E+02  -0.481169E-14
   LPB:    5   0.254222560053385E+00   0.213484933676512E-01   0.165223E-01   0.198128E+00   0.597427E+02  -0.678905E-14
   LPB:    6   0.254224748600194E+00   0.111430407508095E-01   0.637605E-02   0.677708E+00   0.148804E+03  -0.726857E-14
   LPB:    7   0.254227273810351E+00   0.236839717603992E-02   0.157048E-01   0.468448E+00   0.225640E+03  -0.740346E-14
   LPB:    8   0.254228434541868E+00   0.198856997174061E-02   0.270117E-01   0.267248E+00   0.137373E+03  -0.757310E-14
   LPB:    9   0.254228978586670E+00   0.126131253114514E-02   0.297846E-01   0.425073E+00   0.511299E+03  -0.762866E-14
    LS:    0   0.254228973042480E+00   0.138949221958617E-03   0.277909532296217E-03
 resid(G=0) =  -2.876522090106137E-007
  NLPB:    1   0.254228973042480E+00   0.124875460335366E-02
   LPB:        0.254228973042480E+00   0.124875457022313E-02
   LPB:    0   0.254228973042481E+00   0.124834112004932E-02  -0.347069E-08   0.000000E+00   0.828804E+02  -0.287652E-06
   LPB:    1   0.254229144158355E+00   0.151711979188481E-02   0.195621E-01   0.000000E+00   0.267982E+03   0.154823E-22
   LPB:    2   0.254229250250475E+00   0.161114612978476E-02   0.203299E-01   0.596587E+00   0.550851E+03  -0.175952E-16
   LPB:    3   0.254229368190589E+00   0.808731873725438E-03   0.222133E-01   0.101742E+01   0.269513E+03  -0.312374E-16
   LPB:    4   0.254229461853982E+00   0.181312476883256E-02   0.306133E-01   0.576251E+00   0.508216E+03  -0.648034E-16
   LPB:    5   0.254229487570946E+00   0.176638718769213E-02   0.794729E-02   0.105765E+01   0.289200E+03  -0.947798E-16
   LPB:    6   0.254229535938540E+00   0.329856128422057E-03   0.170155E-01   0.878434E+00   0.441886E+03  -0.104043E-15
   LPB:    7   0.254229561958653E+00   0.288689315992566E-03   0.244626E-01   0.374193E+00   0.463365E+03  -0.127294E-15
   LPB:    8   0.254229572191163E+00   0.506379486716445E-03   0.256094E-01   0.375645E+00   0.231968E+03  -0.140576E-15
   LPB:    9   0.254229582038783E+00   0.409062743200404E-03   0.232985E-01   0.105784E+01   0.133106E+03  -0.147671E-15
   LPB:   10   0.254229589866665E+00   0.773011340626717E-03   0.191489E-01   0.967154E+00   0.608202E+03  -0.153066E-15
   LPB:   11   0.254229595081966E+00   0.419205979426974E-03   0.122375E-01   0.104252E+01   0.168310E+03  -0.155967E-15
   LPB:   12   0.254229598985002E+00   0.290746853220593E-03   0.199818E-01   0.458334E+00   0.510517E+03  -0.155027E-15
   LPB:   13   0.254229601893877E+00   0.129638565907910E-03   0.179158E-01   0.831229E+00   0.127359E+03  -0.159171E-15
   LPB:   14   0.254229603976490E+00   0.943977479527863E-04   0.243644E-01   0.526458E+00   0.379454E+03  -0.167046E-15
    LS:    0   0.254229604313466E+00   0.631270985762544E-06   0.126186801955865E-05
 resid(G=0) =  -2.494805861896765E-009
  NLPB:    2   0.254229604313466E+00   0.942452600772548E-04
   LPB:        0.254229604313466E+00   0.942452600442343E-04
   LPB:    0   0.254229604313466E+00   0.942450571395708E-04  -0.301013E-10   0.000000E+00   0.828804E+02  -0.249481E-08
   LPB:    1   0.254229605189356E+00   0.210665020164161E-03   0.180211E-01   0.000000E+00   0.606595E+03   0.712231E-25
   LPB:    2   0.254229605625434E+00   0.244472054495330E-03   0.978865E-02   0.916582E+00   0.318389E+03  -0.161927E-18
   LPB:    3   0.254229606531687E+00   0.161044910526949E-03   0.173995E-01   0.116916E+01   0.561089E+03  -0.533650E-18
   LPB:    4   0.254229607282836E+00   0.104183763306058E-03   0.204597E-01   0.704876E+00   0.101836E+03  -0.134790E-17
   LPB:    5   0.254229607916123E+00   0.191674249327336E-03   0.218444E-01   0.789650E+00   0.985669E+02  -0.375691E-17
   LPB:    6   0.254229608365266E+00   0.122280952387018E-03   0.160797E-01   0.963489E+00   0.257357E+03  -0.612361E-17
   LPB:    7   0.254229608711697E+00   0.105268774902138E-03   0.144567E-01   0.857907E+00   0.407626E+03  -0.707099E-17
   LPB:    8   0.254229609021200E+00   0.692407790695047E-04   0.198212E-01   0.651607E+00   0.983106E+02  -0.789333E-17
   LPB:    9   0.254229609420807E+00   0.465687705873367E-04   0.339716E-01   0.753326E+00   0.804999E+02  -0.904428E-17
   LPB:   10   0.254229609703484E+00   0.528986291828098E-04   0.240119E-01   0.100080E+01   0.643545E+02  -0.108568E-16
   LPB:   11   0.254229609907312E+00   0.373244924223964E-04   0.253467E-01   0.683086E+00   0.233923E+03  -0.129041E-16
   LPB:   12   0.254229610020836E+00   0.651784675074376E-04   0.275919E-01   0.511644E+00   0.660736E+02  -0.142322E-16
   LPB:   13   0.254229610058315E+00   0.711469869863976E-04   0.874007E-02   0.104223E+01   0.133792E+03  -0.156993E-16
   LPB:   14   0.254229610123571E+00   0.253022042064638E-04   0.153810E-01   0.989394E+00   0.143941E+03  -0.162112E-16
   LPB:   15   0.254229610169445E+00   0.349638391075059E-04   0.219525E-01   0.492538E+00   0.179974E+03  -0.174111E-16
   LPB:   16   0.254229610231792E+00   0.260465992792452E-04   0.249400E-01   0.119630E+01   0.894482E+02  -0.184023E-16
   LPB:   17   0.254229610264168E+00   0.853922492058689E-05   0.176456E-01   0.733945E+00   0.817671E+02  -0.201585E-16
    LS:    0   0.254229610264334E+00   0.595086818711010E-08   0.119014041207287E-07
 resid(G=0) =  -2.197309001417125E-011
  NLPB:    3   0.254229610264334E+00   0.854020186681096E-05
  Finished solving NLPB equations
 End minimization
 Ecorr=   2028.22876180105     
 A_corr=  0.465149527864164     
 Ecorr_band=  -2027.76361227319     
 End Solvation calculations
RMM:  37    -0.194776240080E+03    0.26554E-02   -0.16777E-04 12061   0.117E-02    0.291E-01
deltaQ =   3.162176E-06
 Dsol_rc =      -0.01667527     -0.00952110     -0.22910036
 Dele =       0.00000000      0.00000000      0.12060763
alpha =   6.000000E-01
DIPOLC =       0.00000000      0.00000000     -0.10736794
ZVAL =  -1.073679E+00
deltaQ =   3.162176E-06
deltaQ =   3.162176E-06
 Dsol_rc =      -0.01667527     -0.00952110     -0.22910036
 Dele =       0.00000000      0.00000000      0.12060763
alpha =   6.000000E-01
DIPOLC =       0.00000000      0.00000000     -0.10736794
ZVAL =  -1.073679E+00
deltaQ =   3.162176E-06
 Dsol_rc =      -0.01667527     -0.00952110     -0.22910036
 Dele =       0.00000000      0.00000000      0.12060763
alpha =   6.000000E-01
DIPOLC =       0.00000000      0.00000000     -0.10736794
ZVAL =  -1.073679E+00
deltaQ =   3.162176E-06
 Dsol_rc =      -0.01667527     -0.00952110     -0.22910036
 Dele =       0.00000000      0.00000000      0.12060763
alpha =   6.000000E-01
DIPOLC =       0.00000000      0.00000000     -0.10736794
ZVAL =  -1.073679E+00
deltaQ =   3.162176E-06
 Dsol_rc =      -0.01667527     -0.00952110     -0.22910036
 Dele =       0.00000000      0.00000000      0.12060763
alpha =   6.000000E-01
DIPOLC =       0.00000000      0.00000000     -0.10736794
ZVAL =  -1.073679E+00
deltaQ =   3.162176E-06
 Dsol_rc =      -0.01667527     -0.00952110     -0.22910036
 Dele =       0.00000000      0.00000000      0.12060763
alpha =   6.000000E-01
DIPOLC =       0.00000000      0.00000000     -0.10736794
ZVAL =  -1.073679E+00
deltaQ =   3.162176E-06
 Dsol_rc =      -0.01667527     -0.00952110     -0.22910036
 Dele =       0.00000000      0.00000000      0.12060763
alpha =   6.000000E-01
DIPOLC =       0.00000000      0.00000000     -0.10736794
ZVAL =  -1.073679E+00
deltaQ =   3.162176E-06
 Dsol_rc =      -0.01667527     -0.00952110     -0.22910036
 Dele =       0.00000000      0.00000000      0.12060763
alpha =   6.000000E-01
DIPOLC =       0.00000000      0.00000000     -0.10736794
ZVAL =  -1.073679E+00
deltaQ =   3.162176E-06
 Dsol_rc =      -0.01667527     -0.00952110     -0.22910036
 Dele =       0.00000000      0.00000000      0.12060763
alpha =   6.000000E-01
DIPOLC =       0.00000000      0.00000000     -0.10736794
ZVAL =  -1.073679E+00
deltaQ =   3.162176E-06
 Dsol_rc =      -0.01667527     -0.00952110     -0.22910036
 Dele =       0.00000000      0.00000000      0.12060763
alpha =   6.000000E-01
DIPOLC =       0.00000000      0.00000000     -0.10736794
ZVAL =  -1.073679E+00
deltaQ =   3.162176E-06
 Dsol_rc =      -0.01667527     -0.00952110     -0.22910036
 Dele =       0.00000000      0.00000000      0.12060763
alpha =   6.000000E-01
DIPOLC =       0.00000000      0.00000000     -0.10736794
ZVAL =  -1.073679E+00
deltaQ =   3.162176E-06
 Dsol_rc =      -0.01667527     -0.00952110     -0.22910036
 Dele =       0.00000000      0.00000000      0.12060763
alpha =   6.000000E-01
DIPOLC =       0.00000000      0.00000000     -0.10736794
ZVAL =  -1.073679E+00
deltaQ =   3.162176E-06
 Dsol_rc =      -0.01667527     -0.00952110     -0.22910036
 Dele =       0.00000000      0.00000000      0.12060763
alpha =   6.000000E-01
DIPOLC =       0.00000000      0.00000000     -0.10736794
ZVAL =  -1.073679E+00
deltaQ =   3.162176E-06
 Dsol_rc =      -0.01667527     -0.00952110     -0.22910036
 Dele =       0.00000000      0.00000000      0.12060763
alpha =   6.000000E-01
DIPOLC =       0.00000000      0.00000000     -0.10736794
ZVAL =  -1.073679E+00
deltaQ =   3.162176E-06
 Dsol_rc =      -0.01667527     -0.00952110     -0.22910036
 Dele =       0.00000000      0.00000000      0.12060763
alpha =   6.000000E-01
DIPOLC =       0.00000000      0.00000000     -0.10736794
ZVAL =  -1.073679E+00
 Dsol_rc =      -0.01667527     -0.00952110     -0.22910036
 Dele =       0.00000000      0.00000000      0.12060763
alpha =   6.000000E-01
DIPOLC =       0.00000000      0.00000000     -0.10736794
ZVAL =  -1.073679E+00
 Begin Solvation calculations
  rms_SCF =   1.103682094826673E-004 tol =   1.103682094826673E-005
 Begin minimization
 Creating dielectric and ionic cavities
  area:      239.954842885598     
  volume:    3289.30112836808     
  A_cav:    0.210920306896441     
  qion_max:     4.88383913111627     
  Solving nonlinear dielectric/ionic screening model
  Starting outer loop
        iter                  A_solv                     rms
 resid(G=0) =   1.405158333935008E-005
  NLPB:    0   0.251839046816490E+00   0.184256184311962E-01
   LPB:        0.251839046816490E+00   0.184256130732478E-01
   LPB:    0   0.251839046817681E+00   0.184264915015493E-01   0.169532E-06   0.000000E+00   0.828845E+02   0.140516E-04
   LPB:    1   0.251841189277809E+00   0.143302159513722E-01   0.140491E-01   0.000000E+00   0.633869E+02  -0.532213E-21
   LPB:    2   0.251843269013458E+00   0.134028011012476E-01   0.144475E-01   0.943958E+00   0.735523E+02   0.295774E-16
   LPB:    3   0.251855675361133E+00   0.211560266691974E-01   0.110791E+00   0.777902E+00   0.245897E+01  -0.371913E-16
   LPB:    4   0.251872583907172E+00   0.725580706808956E-02   0.233052E-01   0.647905E+01   0.215727E+01  -0.181089E-14
   LPB:    5   0.251879000807191E+00   0.788702678480549E-02   0.205706E-01   0.429958E+00   0.501320E+01  -0.389445E-14
   LPB:    6   0.251880791097824E+00   0.171295878305195E-01   0.128865E-01   0.445360E+00   0.165980E+02  -0.469643E-14
   LPB:    7   0.251882207556231E+00   0.297042449543345E-02   0.778478E-02   0.130969E+01   0.195559E+02  -0.492902E-14
   LPB:    8   0.251883180414740E+00   0.183265358153857E-02   0.259606E-01   0.205957E+00   0.188694E+02  -0.511344E-14
    LS:    0   0.251883177760495E+00   0.441309440048498E-04   0.882671964999243E-04
 resid(G=0) =  -3.373396959410746E-007
  NLPB:    1   0.251883177760495E+00   0.184592016624210E-02
   LPB:        0.251883177760495E+00   0.184592013541789E-02
   LPB:    0   0.251883177760496E+00   0.184635406837775E-02  -0.407009E-08   0.000000E+00   0.828826E+02  -0.337340E-06
   LPB:    1   0.251883496987205E+00   0.165416541224923E-02   0.197684E-01   0.000000E+00   0.229146E+03  -0.268376E-22
   LPB:    2   0.251883706998081E+00   0.434949941413102E-02   0.274510E-01   0.473757E+00   0.343972E+03  -0.307896E-16
   LPB:    3   0.251883813329342E+00   0.263214617327420E-02   0.754491E-02   0.184214E+01   0.245084E+03  -0.547350E-16
   LPB:    4   0.251883933738468E+00   0.175386234170367E-02   0.150317E-01   0.568388E+00   0.286984E+03  -0.703032E-16
   LPB:    5   0.251884035098901E+00   0.830339431133132E-03   0.177118E-01   0.714421E+00   0.275912E+03  -0.902388E-16
   LPB:    6   0.251884097131043E+00   0.429793777701219E-03   0.213503E-01   0.507701E+00   0.256333E+03  -0.110096E-15
   LPB:    7   0.251884123256430E+00   0.795454253908096E-03   0.266599E-01   0.337280E+00   0.148053E+03  -0.124281E-15
   LPB:    8   0.251884146332483E+00   0.133042169259289E-02   0.212540E-01   0.110794E+01   0.391322E+02  -0.134440E-15
   LPB:    9   0.251884162797724E+00   0.980927280156418E-03   0.152068E-01   0.997259E+00   0.680426E+02  -0.150438E-15
   LPB:   10   0.251884178446838E+00   0.440366679972104E-03   0.150871E-01   0.957975E+00   0.154543E+03  -0.154934E-15
   LPB:   11   0.251884190665597E+00   0.235774690180189E-03   0.354433E-01   0.332361E+00   0.270964E+02  -0.161342E-15
   LPB:   12   0.251884196194860E+00   0.338411593071515E-03   0.238776E-01   0.671711E+00   0.345965E+02  -0.181815E-15
   LPB:   13   0.251884201785679E+00   0.270234268070352E-03   0.206829E-01   0.116732E+01   0.289897E+02  -0.191885E-15
   LPB:   14   0.251884207392035E+00   0.605409005471931E-03   0.261053E-01   0.794487E+00   0.187770E+02  -0.202419E-15
   LPB:   15   0.251884209078297E+00   0.329924248322984E-03   0.639950E-02   0.122695E+01   0.432202E+02  -0.215801E-15
   LPB:   16   0.251884211806566E+00   0.179092031047230E-03   0.211697E-01   0.489094E+00   0.198025E+02  -0.220443E-15
    LS:    0   0.251884212190624E+00   0.103443012944293E-05   0.206809214252365E-05
 resid(G=0) =  -4.185771368403479E-009
  NLPB:    2   0.251884212190624E+00   0.176857124003578E-03
   LPB:        0.251884212190624E+00   0.176857123954045E-03
   LPB:    0   0.251884212190624E+00   0.176852476569326E-03  -0.505024E-10   0.000000E+00   0.828826E+02  -0.418577E-08
   LPB:    1   0.251884213434154E+00   0.177941415675687E-03   0.133987E-01   0.000000E+00   0.332896E+03  -0.202445E-24
   LPB:    2   0.251884214161399E+00   0.409886745245137E-03   0.164968E-01   0.474994E+00   0.121649E+03  -0.173975E-17
   LPB:    3   0.251884215442100E+00   0.145905799034723E-03   0.122338E-01   0.237468E+01   0.579371E+02  -0.362557E-17
   LPB:    4   0.251884216624563E+00   0.135074384255339E-03   0.259175E-01   0.435821E+00   0.287891E+02  -0.742785E-17
   LPB:    5   0.251884217352001E+00   0.112233146990381E-03   0.173145E-01   0.920853E+00   0.304260E+02  -0.125679E-16
   LPB:    6   0.251884218302646E+00   0.115030480864064E-03   0.318038E-01   0.711467E+00   0.140042E+02  -0.164377E-16
   LPB:    7   0.251884218968803E+00   0.152821559978375E-03   0.247316E-01   0.901126E+00   0.100822E+02  -0.236116E-16
   LPB:    8   0.251884219517156E+00   0.219048605622164E-03   0.164699E-01   0.123608E+01   0.111955E+02  -0.313638E-16
   LPB:    9   0.251884219984767E+00   0.703189260855571E-04   0.140978E-01   0.996242E+00   0.112413E+02  -0.379458E-16
   LPB:   10   0.251884220414689E+00   0.410718858720511E-04   0.262182E-01   0.494369E+00   0.952509E+01  -0.434430E-16
   LPB:   11   0.251884220746058E+00   0.729037442472819E-04   0.356415E-01   0.566983E+00   0.859771E+01  -0.501043E-16
   LPB:   12   0.251884221005089E+00   0.667624880944116E-04   0.227378E-01   0.122531E+01   0.680862E+01  -0.550585E-16
   LPB:   13   0.251884221160404E+00   0.107605203925383E-03   0.173424E-01   0.786143E+00   0.135089E+02  -0.608513E-16
   LPB:   14   0.251884221240306E+00   0.818785494337960E-04   0.827020E-02   0.107879E+01   0.253165E+02  -0.645281E-16
   LPB:   15   0.251884221335872E+00   0.488467907244866E-04   0.141441E-01   0.699341E+00   0.170105E+02  -0.664554E-16
   LPB:   16   0.251884221403770E+00   0.205788958859015E-04   0.185522E-01   0.541666E+00   0.129610E+02  -0.697148E-16
   LPB:   17   0.251884221480308E+00   0.197032114494518E-04   0.352210E-01   0.593760E+00   0.134086E+02  -0.726273E-16
   LPB:   18   0.251884221531626E+00   0.121597143097885E-04   0.217221E-01   0.108717E+01   0.193635E+02  -0.756349E-16
    LS:    0   0.251884221531591E+00   0.934096622273728E-08   0.186820029896155E-07
 resid(G=0) =  -8.876227530763003E-011
  NLPB:    3   0.251884221531591E+00   0.121608436553857E-04
   LPB:        0.251884221531591E+00   0.121608436550618E-04
   LPB:    0   0.251884221531591E+00   0.121608858713934E-04  -0.107094E-11   0.000000E+00   0.828826E+02  -0.887623E-10
   LPB:    1   0.251884221546212E+00   0.127709652293385E-04   0.157712E-01   0.000000E+00   0.659409E+03  -0.721696E-27
   LPB:    2   0.251884221559225E+00   0.690625572072567E-05   0.273699E-01   0.512857E+00   0.223959E+03   0.560397E-19
   LPB:    3   0.251884221565929E+00   0.106675906813998E-04   0.255742E-01   0.551340E+00   0.590963E+03  -0.110705E-18
   LPB:    4   0.251884221570113E+00   0.135469204313972E-04   0.186716E-01   0.854690E+00   0.166865E+03  -0.106954E-18
   LPB:    5   0.251884221572709E+00   0.192090412141169E-04   0.120325E-01   0.963184E+00   0.117119E+03  -0.268615E-18
   LPB:    6   0.251884221575761E+00   0.833421622103975E-05   0.108813E-01   0.129967E+01   0.101927E+03  -0.472417E-18
   LPB:    7   0.251884221578634E+00   0.605212825716876E-05   0.197882E-01   0.517620E+00   0.119914E+03  -0.714755E-18
   LPB:    8   0.251884221580796E+00   0.339959070646047E-05   0.225722E-01   0.659854E+00   0.549856E+02  -0.974847E-18
   LPB:    9   0.251884221582440E+00   0.499068767422497E-05   0.280940E-01   0.610836E+00   0.567205E+02  -0.128551E-17
   LPB:   10   0.251884221583363E+00   0.958608865728314E-05   0.209570E-01   0.752066E+00   0.352356E+02  -0.150350E-17
   LPB:   11   0.251884221584128E+00   0.346277007720318E-05   0.126286E-01   0.137671E+01   0.302067E+02  -0.175908E-17
   LPB:   12   0.251884221584779E+00   0.269017014223482E-05   0.215013E-01   0.499732E+00   0.474883E+02  -0.194557E-17
   LPB:   13   0.251884221585213E+00   0.217860978503975E-05   0.236588E-01   0.606754E+00   0.284969E+02  -0.210857E-17
   LPB:   14   0.251884221585582E+00   0.210186303174790E-05   0.265253E-01   0.756294E+00   0.175537E+02  -0.225986E-17
   LPB:   15   0.251884221585806E+00   0.172141452833055E-05   0.179487E-01   0.899956E+00   0.239241E+02  -0.237740E-17
   LPB:   16   0.251884221586022E+00   0.276884159561348E-05   0.244659E-01   0.706434E+00   0.191540E+02  -0.244932E-17
   LPB:   17   0.251884221586096E+00   0.328647669764100E-05   0.912200E-02   0.911557E+00   0.345468E+02  -0.252193E-17
   LPB:   18   0.251884221586217E+00   0.109171631782375E-05   0.144510E-01   0.103902E+01   0.163943E+02  -0.255224E-17
    LS:    0   0.251884221586231E+00   0.546406253576492E-10   0.109252165271996E-09
 resid(G=0) =  -6.561140519778519E-013
  NLPB:    4   0.251884221586231E+00   0.109167284922001E-05
  Finished solving NLPB equations
 End minimization
 Ecorr=   2010.43358132503     
 A_corr=  0.462804528482672     
 Ecorr_band=  -2009.97077679655     
 End Solvation calculations
RMM:  38    -0.194773021134E+03    0.32189E-02   -0.39590E-04 12093   0.175E-02    0.212E-01
deltaQ =   3.163363E-06
 Dsol_rc =      -0.01671580     -0.00952244     -0.29661444
 Dele =       0.00000000      0.00000000      0.17188550
alpha =   6.000000E-01
DIPOLC =       0.00000000      0.00000000     -0.11778454
ZVAL =  -1.177845E+00
deltaQ =   3.163363E-06
 Dsol_rc =      -0.01671580     -0.00952244     -0.29661444
 Dele =       0.00000000      0.00000000      0.17188550
alpha =   6.000000E-01
DIPOLC =       0.00000000      0.00000000     -0.11778454
ZVAL =  -1.177845E+00
deltaQ =   3.163363E-06
 Dsol_rc =      -0.01671580     -0.00952244     -0.29661444
 Dele =       0.00000000      0.00000000      0.17188550
alpha =   6.000000E-01
DIPOLC =       0.00000000      0.00000000     -0.11778454
ZVAL =  -1.177845E+00
deltaQ =   3.163363E-06
 Dsol_rc =      -0.01671580     -0.00952244     -0.29661444
 Dele =       0.00000000      0.00000000      0.17188550
alpha =   6.000000E-01
DIPOLC =       0.00000000      0.00000000     -0.11778454
ZVAL =  -1.177845E+00
deltaQ =   3.163363E-06
deltaQ =   3.163363E-06
 Dsol_rc =      -0.01671580     -0.00952244     -0.29661444
 Dele =       0.00000000      0.00000000      0.17188550
alpha =   6.000000E-01
DIPOLC =       0.00000000      0.00000000     -0.11778454
ZVAL =  -1.177845E+00
deltaQ =   3.163363E-06
 Dsol_rc =      -0.01671580     -0.00952244     -0.29661444
 Dele =       0.00000000      0.00000000      0.17188550
alpha =   6.000000E-01
DIPOLC =       0.00000000      0.00000000     -0.11778454
ZVAL =  -1.177845E+00
deltaQ =   3.163363E-06
 Dsol_rc =      -0.01671580     -0.00952244     -0.29661444
 Dele =       0.00000000      0.00000000      0.17188550
alpha =   6.000000E-01
DIPOLC =       0.00000000      0.00000000     -0.11778454
ZVAL =  -1.177845E+00
deltaQ =   3.163363E-06
 Dsol_rc =      -0.01671580     -0.00952244     -0.29661444
 Dele =       0.00000000      0.00000000      0.17188550
alpha =   6.000000E-01
DIPOLC =       0.00000000      0.00000000     -0.11778454
ZVAL =  -1.177845E+00
deltaQ =   3.163363E-06
 Dsol_rc =      -0.01671580     -0.00952244     -0.29661444
 Dele =       0.00000000      0.00000000      0.17188550
alpha =   6.000000E-01
DIPOLC =       0.00000000      0.00000000     -0.11778454
ZVAL =  -1.177845E+00
deltaQ =   3.163363E-06
 Dsol_rc =      -0.01671580     -0.00952244     -0.29661444
 Dele =       0.00000000      0.00000000      0.17188550
alpha =   6.000000E-01
DIPOLC =       0.00000000      0.00000000     -0.11778454
ZVAL =  -1.177845E+00
deltaQ =   3.163363E-06
 Dsol_rc =      -0.01671580     -0.00952244     -0.29661444
 Dele =       0.00000000      0.00000000      0.17188550
alpha =   6.000000E-01
DIPOLC =       0.00000000      0.00000000     -0.11778454
ZVAL =  -1.177845E+00
deltaQ =   3.163363E-06
 Dsol_rc =      -0.01671580     -0.00952244     -0.29661444
 Dele =       0.00000000      0.00000000      0.17188550
alpha =   6.000000E-01
DIPOLC =       0.00000000      0.00000000     -0.11778454
ZVAL =  -1.177845E+00
deltaQ =   3.163363E-06
 Dsol_rc =      -0.01671580     -0.00952244     -0.29661444
 Dele =       0.00000000      0.00000000      0.17188550
alpha =   6.000000E-01
DIPOLC =       0.00000000      0.00000000     -0.11778454
ZVAL =  -1.177845E+00
deltaQ =   3.163363E-06
 Dsol_rc =      -0.01671580     -0.00952244     -0.29661444
 Dele =       0.00000000      0.00000000      0.17188550
alpha =   6.000000E-01
DIPOLC =       0.00000000      0.00000000     -0.11778454
ZVAL =  -1.177845E+00
deltaQ =   3.163363E-06
 Dsol_rc =      -0.01671580     -0.00952244     -0.29661444
 Dele =       0.00000000      0.00000000      0.17188550
alpha =   6.000000E-01
DIPOLC =       0.00000000      0.00000000     -0.11778454
ZVAL =  -1.177845E+00
 Dsol_rc =      -0.01671580     -0.00952244     -0.29661444
 Dele =       0.00000000      0.00000000      0.17188550
alpha =   6.000000E-01
DIPOLC =       0.00000000      0.00000000     -0.11778454
ZVAL =  -1.177845E+00
 Begin Solvation calculations
  rms_SCF =   1.103682094826673E-004 tol =   1.103682094826673E-005
 Begin minimization
 Creating dielectric and ionic cavities
  area:      239.955052267502     
  volume:    3289.25056147926     
  A_cav:    0.210920490943134     
  qion_max:     4.88398096895785     
  Solving nonlinear dielectric/ionic screening model
  Starting outer loop
        iter                  A_solv                     rms
 resid(G=0) =   8.907126470822369E-006
  NLPB:    0   0.250339813827672E+00   0.941630828210122E-02
   LPB:        0.250339813827672E+00   0.941630406936108E-02
   LPB:    0   0.250339813828150E+00   0.941501148377384E-02   0.107464E-06   0.000000E+00   0.828850E+02   0.890713E-05
   LPB:    1   0.250350462024420E+00   0.522427486577306E-01   0.567631E-01   0.000000E+00   0.696823E+02  -0.308044E-21
   LPB:    2   0.250374857685469E+00   0.428558957109175E-01   0.214597E-01   0.606008E+01   0.968422E+02   0.777558E-16
   LPB:    3   0.250463690144515E+00   0.430896888201400E-01   0.467933E-01   0.166994E+01   0.994983E+01  -0.377451E-15
   LPB:    4   0.250489508071909E+00   0.488806651707650E-02   0.120956E-01   0.112436E+01   0.563737E+02  -0.413739E-14
   LPB:    5   0.250492889479761E+00   0.247312159001628E-02   0.171377E-01   0.924377E-01   0.308406E+03  -0.466849E-14
   LPB:    6   0.250493769151628E+00   0.793017732485722E-02   0.200419E-01   0.222453E+00   0.377928E+03  -0.474373E-14
   LPB:    7   0.250493998314121E+00   0.262818361289722E-02   0.566981E-02   0.920859E+00   0.267785E+03  -0.478426E-14
   LPB:    8   0.250494270975310E+00   0.106805274732211E-02   0.209334E-01   0.322263E+00   0.308705E+03  -0.478900E-14
   LPB:    9   0.250494406601308E+00   0.588606291972717E-03   0.285114E-01   0.365207E+00   0.330278E+03  -0.478231E-14
    LS:    0   0.250494407809245E+00   0.154593981573470E-03   0.309185547271736E-03
 resid(G=0) =  -8.027201540972140E-008
  NLPB:    1   0.250494407809245E+00   0.585379199920584E-03
   LPB:        0.250494407809245E+00   0.585379194416804E-03
   LPB:    0   0.250494407809245E+00   0.585258678073836E-03  -0.968487E-09   0.000000E+00   0.828839E+02  -0.802720E-07
   LPB:    1   0.250494452369628E+00   0.552491839449221E-03   0.213875E-01   0.000000E+00   0.259853E+03   0.542378E-23
   LPB:    2   0.250494487631903E+00   0.622740272880579E-03   0.343731E-01   0.492381E+00   0.470326E+03   0.255087E-17
   LPB:    3   0.250494504004994E+00   0.163199892406435E-02   0.165358E-01   0.965193E+00   0.372540E+03  -0.614374E-17
   LPB:    4   0.250494519756036E+00   0.729694352638361E-03   0.900369E-02   0.176679E+01   0.377939E+03  -0.999737E-17
   LPB:    5   0.250494531844831E+00   0.484848764918870E-03   0.148452E-01   0.465489E+00   0.315188E+03  -0.132653E-16
   LPB:    6   0.250494543642081E+00   0.177550198679242E-03   0.214982E-01   0.673876E+00   0.340178E+03  -0.177419E-16
   LPB:    7   0.250494549472374E+00   0.288459944749572E-03   0.239155E-01   0.444256E+00   0.430937E+03  -0.231199E-16
   LPB:    8   0.250494551242554E+00   0.442732889360015E-03   0.160112E-01   0.453505E+00   0.128751E+03  -0.270313E-16
   LPB:    9   0.250494553716238E+00   0.153503014746699E-03   0.176547E-01   0.126733E+01   0.264786E+03  -0.290025E-16
   LPB:   10   0.250494555980260E+00   0.250196072565187E-03   0.229666E-01   0.703558E+00   0.246355E+03  -0.315894E-16
   LPB:   11   0.250494557660297E+00   0.133605139330722E-03   0.202626E-01   0.841083E+00   0.167380E+03  -0.350952E-16
   LPB:   12   0.250494558667561E+00   0.121190885445236E-03   0.270525E-01   0.449068E+00   0.341035E+03  -0.295656E-16
   LPB:   13   0.250494559235220E+00   0.751625725602847E-04   0.162009E-01   0.941052E+00   0.137530E+03  -0.299897E-16
   LPB:   14   0.250494559672742E+00   0.349625499580558E-04   0.238232E-01   0.524144E+00   0.713220E+03  -0.315137E-16
    LS:    0   0.250494559622849E+00   0.151813603299633E-06   0.303726993356912E-06
 resid(G=0) =  -4.798617891932366E-010
  NLPB:    2   0.250494559622849E+00   0.349703639288651E-04
   LPB:        0.250494559622849E+00   0.349703639255728E-04
   LPB:    0   0.250494559622849E+00   0.349702486040329E-04  -0.578956E-11   0.000000E+00   0.828839E+02  -0.479862E-09
   LPB:    1   0.250494559830769E+00   0.744187649294983E-04   0.182425E-01   0.000000E+00   0.986414E+03   0.187404E-25
   LPB:    2   0.250494559938518E+00   0.139425456981364E-03   0.130342E-01   0.725292E+00   0.340818E+03  -0.263909E-18
   LPB:    3   0.250494560119112E+00   0.821262494713038E-04   0.130494E-01   0.167413E+01   0.493617E+03  -0.261233E-18
   LPB:    4   0.250494560264814E+00   0.370168472254952E-04   0.163890E-01   0.642387E+00   0.183748E+03  -0.292661E-18
   LPB:    5   0.250494560431281E+00   0.591776955525315E-04   0.300176E-01   0.623795E+00   0.873155E+02  -0.196191E-17
   LPB:    6   0.250494560539261E+00   0.342183354921612E-04   0.217767E-01   0.894123E+00   0.279131E+03  -0.483711E-17
   LPB:    7   0.250494560617388E+00   0.176563563406339E-04   0.225555E-01   0.698551E+00   0.563841E+03  -0.526216E-17
   LPB:    8   0.250494560692806E+00   0.498407155226606E-04   0.363177E-01   0.599524E+00   0.176858E+03  -0.648150E-17
   LPB:    9   0.250494560734335E+00   0.559335938056152E-04   0.144949E-01   0.137970E+01   0.136822E+03  -0.809745E-17
   LPB:   10   0.250494560779371E+00   0.226499333926184E-04   0.162321E-01   0.968380E+00   0.340726E+03  -0.908953E-17
   LPB:   11   0.250494560807112E+00   0.213461703986617E-04   0.194677E-01   0.513587E+00   0.380621E+03  -0.100904E-16
   LPB:   12   0.250494560827456E+00   0.197209493436797E-04   0.202200E-01   0.706097E+00   0.183112E+03  -0.108918E-16
   LPB:   13   0.250494560839796E+00   0.265209896801934E-04   0.168921E-01   0.726068E+00   0.105946E+03  -0.117468E-16
   LPB:   14   0.250494560845886E+00   0.272746722767903E-04   0.929010E-02   0.897275E+00   0.181061E+03  -0.123375E-16
   LPB:   15   0.250494560854924E+00   0.761911193237412E-05   0.141947E-01   0.971327E+00   0.198944E+03  -0.126628E-16
   LPB:   16   0.250494560869037E+00   0.764772148056994E-05   0.427057E-01   0.519033E+00   0.135668E+03  -0.131783E-16
   LPB:   17   0.250494560874034E+00   0.355878823767483E-05   0.182183E-01   0.830013E+00   0.153245E+03  -0.141946E-16
   LPB:   18   0.250494560876489E+00   0.312841962812530E-05   0.296834E-01   0.301575E+00   0.238266E+03  -0.145864E-16
    LS:    0   0.250494560876479E+00   0.125363075476059E-08   0.250728099366934E-08
 resid(G=0) =  -4.923658702971068E-012
  NLPB:    3   0.250494560876479E+00   0.312885052436762E-05
  Finished solving NLPB equations
 End minimization
 Ecorr=   2000.73334657646     
 A_corr=  0.461415051819613     
 Ecorr_band=  -2000.27193152464     
 End Solvation calculations
RMM:  39    -0.194771583276E+03    0.14379E-02   -0.15634E-04 12027   0.108E-02    0.168E-01
deltaQ =   3.165191E-06
 Dsol_rc =      -0.01671550     -0.00952317     -0.33221440
 Dele =       0.00000000      0.00000000      0.23689535
alpha =   3.000000E-01
DIPOLC =       0.00000000      0.00000000     -0.11104490
ZVAL =  -1.110449E+00
deltaQ =   3.165191E-06
 Dsol_rc =      -0.01671550     -0.00952317     -0.33221440
 Dele =       0.00000000      0.00000000      0.23689535
alpha =   3.000000E-01
DIPOLC =       0.00000000      0.00000000     -0.11104490
ZVAL =  -1.110449E+00
deltaQ =   3.165191E-06
deltaQ =   3.165191E-06
 Dsol_rc =      -0.01671550     -0.00952317     -0.33221440
 Dele =       0.00000000      0.00000000      0.23689535
alpha =   3.000000E-01
DIPOLC =       0.00000000      0.00000000     -0.11104490
ZVAL =  -1.110449E+00
deltaQ =   3.165191E-06
 Dsol_rc =      -0.01671550     -0.00952317     -0.33221440
 Dele =       0.00000000      0.00000000      0.23689535
alpha =   3.000000E-01
DIPOLC =       0.00000000      0.00000000     -0.11104490
ZVAL =  -1.110449E+00
deltaQ =   3.165191E-06
 Dsol_rc =      -0.01671550     -0.00952317     -0.33221440
 Dele =       0.00000000      0.00000000      0.23689535
alpha =   3.000000E-01
DIPOLC =       0.00000000      0.00000000     -0.11104490
ZVAL =  -1.110449E+00
deltaQ =   3.165191E-06
 Dsol_rc =      -0.01671550     -0.00952317     -0.33221440
 Dele =       0.00000000      0.00000000      0.23689535
alpha =   3.000000E-01
DIPOLC =       0.00000000      0.00000000     -0.11104490
ZVAL =  -1.110449E+00
deltaQ =   3.165191E-06
 Dsol_rc =      -0.01671550     -0.00952317     -0.33221440
 Dele =       0.00000000      0.00000000      0.23689535
alpha =   3.000000E-01
DIPOLC =       0.00000000      0.00000000     -0.11104490
ZVAL =  -1.110449E+00
deltaQ =   3.165191E-06
 Dsol_rc =      -0.01671550     -0.00952317     -0.33221440
 Dele =       0.00000000      0.00000000      0.23689535
alpha =   3.000000E-01
DIPOLC =       0.00000000      0.00000000     -0.11104490
ZVAL =  -1.110449E+00
deltaQ =   3.165191E-06
 Dsol_rc =      -0.01671550     -0.00952317     -0.33221440
 Dele =       0.00000000      0.00000000      0.23689535
alpha =   3.000000E-01
DIPOLC =       0.00000000      0.00000000     -0.11104490
ZVAL =  -1.110449E+00
deltaQ =   3.165191E-06
 Dsol_rc =      -0.01671550     -0.00952317     -0.33221440
 Dele =       0.00000000      0.00000000      0.23689535
alpha =   3.000000E-01
DIPOLC =       0.00000000      0.00000000     -0.11104490
ZVAL =  -1.110449E+00
deltaQ =   3.165191E-06
 Dsol_rc =      -0.01671550     -0.00952317     -0.33221440
 Dele =       0.00000000      0.00000000      0.23689535
alpha =   3.000000E-01
DIPOLC =       0.00000000      0.00000000     -0.11104490
ZVAL =  -1.110449E+00
deltaQ =   3.165191E-06
 Dsol_rc =      -0.01671550     -0.00952317     -0.33221440
 Dele =       0.00000000      0.00000000      0.23689535
alpha =   3.000000E-01
DIPOLC =       0.00000000      0.00000000     -0.11104490
ZVAL =  -1.110449E+00
deltaQ =   3.165191E-06
 Dsol_rc =      -0.01671550     -0.00952317     -0.33221440
 Dele =       0.00000000      0.00000000      0.23689535
alpha =   3.000000E-01
DIPOLC =       0.00000000      0.00000000     -0.11104490
ZVAL =  -1.110449E+00
deltaQ =   3.165191E-06
 Dsol_rc =      -0.01671550     -0.00952317     -0.33221440
 Dele =       0.00000000      0.00000000      0.23689535
alpha =   3.000000E-01
DIPOLC =       0.00000000      0.00000000     -0.11104490
ZVAL =  -1.110449E+00
deltaQ =   3.165191E-06
 Dsol_rc =      -0.01671550     -0.00952317     -0.33221440
 Dele =       0.00000000      0.00000000      0.23689535
alpha =   3.000000E-01
DIPOLC =       0.00000000      0.00000000     -0.11104490
ZVAL =  -1.110449E+00
 Dsol_rc =      -0.01671550     -0.00952317     -0.33221440
 Dele =       0.00000000      0.00000000      0.23689535
alpha =   3.000000E-01
DIPOLC =       0.00000000      0.00000000     -0.11104490
ZVAL =  -1.110449E+00
 Begin Solvation calculations
  rms_SCF =   1.103682094826673E-004 tol =   1.103682094826673E-005
 Begin minimization
 Creating dielectric and ionic cavities
  area:      239.955222688638     
  volume:    3289.19837341524     
  A_cav:    0.210920640743313     
  qion_max:     4.88412756610534     
  Solving nonlinear dielectric/ionic screening model
  Starting outer loop
        iter                  A_solv                     rms
 resid(G=0) =   9.524933392929258E-006
  NLPB:    0   0.248773612091410E+00   0.148935783339037E-01
   LPB:        0.248773612091410E+00   0.148935752881492E-01
   LPB:    0   0.248773612091958E+00   0.148875930930807E-01   0.114916E-06   0.000000E+00   0.828864E+02   0.952493E-05
   LPB:    1   0.248776656030691E+00   0.202911474236644E-01   0.219869E-01   0.000000E+00   0.483238E+02  -0.957119E-22
   LPB:    2   0.248781643163674E+00   0.164123317207563E-01   0.186063E-01   0.193605E+01   0.893054E+02   0.726691E-16
   LPB:    3   0.248814881200731E+00   0.338695035367569E-01   0.932413E-01   0.132995E+01   0.166101E+02   0.986066E-16
   LPB:    4   0.248839134349077E+00   0.598430481061694E-02   0.166014E-01   0.409822E+01   0.396194E+02  -0.838638E-15
   LPB:    5   0.248844852458023E+00   0.420301073908444E-02   0.190056E-01   0.205944E+00   0.177165E+03  -0.857038E-15
   LPB:    6   0.248846542845215E+00   0.132045880626140E-01   0.183009E-01   0.307003E+00   0.348537E+03  -0.881585E-15
   LPB:    7   0.248847162319164E+00   0.330049063009998E-02   0.585643E-02   0.114518E+01   0.285510E+03  -0.901561E-15
   LPB:    8   0.248847807108182E+00   0.160965494630762E-02   0.231545E-01   0.263264E+00   0.314361E+03  -0.908009E-15
   LPB:    9   0.248848129052914E+00   0.935315703470659E-03   0.290244E-01   0.398324E+00   0.379228E+03  -0.893758E-15
    LS:    0   0.248848131967055E+00   0.745198756444410E-04   0.149033923006768E-03
 resid(G=0) =  -1.648692599526269E-007
  NLPB:    1   0.248848131967055E+00   0.927260311549951E-03
   LPB:        0.248848131967055E+00   0.927260296892862E-03
   LPB:    0   0.248848131967055E+00   0.927004424038151E-03  -0.198914E-08   0.000000E+00   0.828847E+02  -0.164869E-06
   LPB:    1   0.248848239634526E+00   0.887138556558147E-03   0.213753E-01   0.000000E+00   0.237693E+03   0.384890E-23
   LPB:    2   0.248848321665891E+00   0.107935661480573E-02   0.326449E-01   0.498874E+00   0.455899E+03  -0.921635E-17
   LPB:    3   0.248848365976152E+00   0.188722371469749E-02   0.163262E-01   0.108007E+01   0.385681E+03  -0.378028E-16
   LPB:    4   0.248848398696237E+00   0.187642719907012E-02   0.102387E-01   0.117747E+01   0.370278E+03  -0.556083E-16
   LPB:    5   0.248848431676097E+00   0.574396605015916E-03   0.111589E-01   0.924824E+00   0.351191E+03  -0.708887E-16
   LPB:    6   0.248848464183816E+00   0.259722644384961E-03   0.267487E-01   0.411203E+00   0.474682E+03  -0.868775E-16
   LPB:    7   0.248848479876157E+00   0.544843892480965E-03   0.240986E-01   0.535810E+00   0.556611E+03  -0.104170E-15
   LPB:    8   0.248848484231305E+00   0.600425380493948E-03   0.134455E-01   0.497428E+00   0.142650E+03  -0.111119E-15
   LPB:    9   0.248848490089933E+00   0.280395373826926E-03   0.189379E-01   0.955076E+00   0.383009E+03  -0.113235E-15
   LPB:   10   0.248848495775172E+00   0.404507683908135E-03   0.218985E-01   0.839208E+00   0.207521E+03  -0.112680E-15
   LPB:   11   0.248848500602538E+00   0.197659928666842E-03   0.226266E-01   0.821785E+00   0.199958E+03  -0.116339E-15
   LPB:   12   0.248848503014610E+00   0.233987620810823E-03   0.207835E-01   0.543977E+00   0.785924E+03  -0.107436E-15
   LPB:   13   0.248848505063568E+00   0.102116628032511E-03   0.199332E-01   0.885692E+00   0.150371E+03  -0.104151E-15
   LPB:   14   0.248848506322583E+00   0.104799103812901E-03   0.252007E-01   0.486030E+00   0.919829E+03  -0.104899E-15
   LPB:   15   0.248848507016808E+00   0.334317939401729E-03   0.206965E-01   0.671408E+00   0.374450E+03  -0.104229E-15
   LPB:   16   0.248848507590370E+00   0.126474380412510E-03   0.810129E-02   0.211068E+01   0.357065E+03  -0.104234E-15
   LPB:   17   0.248848508335363E+00   0.888744650379651E-04   0.226847E-01   0.463867E+00   0.639623E+03  -0.104270E-15
    LS:    0   0.248848508229185E+00   0.376262130202809E-06   0.752736617451246E-06
 resid(G=0) =  -1.102430757793371E-009
  NLPB:    2   0.248848508229185E+00   0.878887945080321E-04
   LPB:        0.248848508229185E+00   0.878887945011179E-04
   LPB:    0   0.248848508229185E+00   0.878873876018082E-04  -0.133008E-10   0.000000E+00   0.828847E+02  -0.110243E-08
   LPB:    1   0.248848508549235E+00   0.598426708211074E-04   0.132848E-01   0.000000E+00   0.273190E+03  -0.583330E-25
   LPB:    2   0.248848508723810E+00   0.170950085535309E-03   0.187549E-01   0.386371E+00   0.430100E+03  -0.590696E-18
   LPB:    3   0.248848508870320E+00   0.584152196309247E-04   0.809015E-02   0.194556E+01   0.422336E+03  -0.992167E-18
   LPB:    4   0.248848509088176E+00   0.319420335809453E-04   0.286117E-01   0.420449E+00   0.555726E+03  -0.143484E-17
   LPB:    5   0.248848509284301E+00   0.677083298112031E-04   0.302825E-01   0.850584E+00   0.315224E+03  -0.225184E-17
   LPB:    6   0.248848509436753E+00   0.419990394327557E-04   0.207958E-01   0.113191E+01   0.161434E+03  -0.286433E-17
   LPB:    7   0.248848509585221E+00   0.591310220528795E-04   0.231994E-01   0.872970E+00   0.124365E+03  -0.432055E-17
   LPB:    8   0.248848509668548E+00   0.853103601515469E-04   0.153617E-01   0.847603E+00   0.314132E+03  -0.599141E-17
   LPB:    9   0.248848509729034E+00   0.417549979002420E-04   0.137911E-01   0.808563E+00   0.111890E+03  -0.750366E-17
   LPB:   10   0.248848509782060E+00   0.201417095129945E-04   0.198642E-01   0.608625E+00   0.184310E+03  -0.852114E-17
   LPB:   11   0.248848509844423E+00   0.130779374170309E-04   0.309351E-01   0.755204E+00   0.162948E+03  -0.105761E-16
   LPB:   12   0.248848509890941E+00   0.236573204930954E-04   0.289226E-01   0.797837E+00   0.207252E+03  -0.130711E-16
   LPB:   13   0.248848509914571E+00   0.552128491098845E-04   0.171679E-01   0.855772E+00   0.276565E+03  -0.149438E-16
   LPB:   14   0.248848509930776E+00   0.265228616597695E-04   0.787269E-02   0.149541E+01   0.251443E+03  -0.158571E-16
   LPB:   15   0.248848509946696E+00   0.133632126973152E-04   0.164035E-01   0.471537E+00   0.158062E+03  -0.165310E-16
   LPB:   16   0.248848509956823E+00   0.139579657182429E-04   0.201630E-01   0.517454E+00   0.187054E+03  -0.173964E-16
   LPB:   17   0.248848509965723E+00   0.570514238463705E-05   0.209501E-01   0.845943E+00   0.403975E+03  -0.179794E-16
    LS:    0   0.248848509965724E+00   0.173653888491110E-08   0.347307682396075E-08
 resid(G=0) =  -1.931796389520457E-011
  NLPB:    3   0.248848509965724E+00   0.570482082333157E-05
  Finished solving NLPB equations
 End minimization
 Ecorr=   1989.91701928595     
 A_corr=  0.459769150709037     
 Ecorr_band=  -1989.45725013525     
 End Solvation calculations
RMM:  40    -0.194771130586E+03    0.45269E-03   -0.26653E-05 10454   0.446E-03    0.158E-01
deltaQ =   3.166358E-06
 Dsol_rc =      -0.01666770     -0.00951981     -0.38309937
 Dele =       0.00000000      0.00000000      0.40230804
alpha =   6.000000E-01
DIPOLC =       0.00000000      0.00000000     -0.03289275
ZVAL =  -3.289275E-01
deltaQ =   3.166358E-06
deltaQ =   3.166358E-06
 Dsol_rc =      -0.01666770     -0.00951981     -0.38309937
 Dele =       0.00000000      0.00000000      0.40230804
alpha =   6.000000E-01
DIPOLC =       0.00000000      0.00000000     -0.03289275
ZVAL =  -3.289275E-01
deltaQ =   3.166358E-06
 Dsol_rc =      -0.01666770     -0.00951981     -0.38309937
 Dele =       0.00000000      0.00000000      0.40230804
alpha =   6.000000E-01
DIPOLC =       0.00000000      0.00000000     -0.03289275
ZVAL =  -3.289275E-01
deltaQ =   3.166358E-06
 Dsol_rc =      -0.01666770     -0.00951981     -0.38309937
 Dele =       0.00000000      0.00000000      0.40230804
alpha =   6.000000E-01
DIPOLC =       0.00000000      0.00000000     -0.03289275
ZVAL =  -3.289275E-01
deltaQ =   3.166358E-06
 Dsol_rc =      -0.01666770     -0.00951981     -0.38309937
 Dele =       0.00000000      0.00000000      0.40230804
alpha =   6.000000E-01
DIPOLC =       0.00000000      0.00000000     -0.03289275
ZVAL =  -3.289275E-01
deltaQ =   3.166358E-06
 Dsol_rc =      -0.01666770     -0.00951981     -0.38309937
 Dele =       0.00000000      0.00000000      0.40230804
alpha =   6.000000E-01
DIPOLC =       0.00000000      0.00000000     -0.03289275
ZVAL =  -3.289275E-01
deltaQ =   3.166358E-06
 Dsol_rc =      -0.01666770     -0.00951981     -0.38309937
 Dele =       0.00000000      0.00000000      0.40230804
alpha =   6.000000E-01
DIPOLC =       0.00000000      0.00000000     -0.03289275
ZVAL =  -3.289275E-01
deltaQ =   3.166358E-06
 Dsol_rc =      -0.01666770     -0.00951981     -0.38309937
 Dele =       0.00000000      0.00000000      0.40230804
alpha =   6.000000E-01
DIPOLC =       0.00000000      0.00000000     -0.03289275
ZVAL =  -3.289275E-01
deltaQ =   3.166358E-06
 Dsol_rc =      -0.01666770     -0.00951981     -0.38309937
 Dele =       0.00000000      0.00000000      0.40230804
alpha =   6.000000E-01
DIPOLC =       0.00000000      0.00000000     -0.03289275
ZVAL =  -3.289275E-01
deltaQ =   3.166358E-06
 Dsol_rc =      -0.01666770     -0.00951981     -0.38309937
 Dele =       0.00000000      0.00000000      0.40230804
alpha =   6.000000E-01
DIPOLC =       0.00000000      0.00000000     -0.03289275
ZVAL =  -3.289275E-01
deltaQ =   3.166358E-06
 Dsol_rc =      -0.01666770     -0.00951981     -0.38309937
 Dele =       0.00000000      0.00000000      0.40230804
alpha =   6.000000E-01
DIPOLC =       0.00000000      0.00000000     -0.03289275
ZVAL =  -3.289275E-01
deltaQ =   3.166358E-06
 Dsol_rc =      -0.01666770     -0.00951981     -0.38309937
 Dele =       0.00000000      0.00000000      0.40230804
alpha =   6.000000E-01
DIPOLC =       0.00000000      0.00000000     -0.03289275
ZVAL =  -3.289275E-01
deltaQ =   3.166358E-06
 Dsol_rc =      -0.01666770     -0.00951981     -0.38309937
 Dele =       0.00000000      0.00000000      0.40230804
alpha =   6.000000E-01
DIPOLC =       0.00000000      0.00000000     -0.03289275
ZVAL =  -3.289275E-01
deltaQ =   3.166358E-06
 Dsol_rc =      -0.01666770     -0.00951981     -0.38309937
 Dele =       0.00000000      0.00000000      0.40230804
alpha =   6.000000E-01
DIPOLC =       0.00000000      0.00000000     -0.03289275
ZVAL =  -3.289275E-01
deltaQ =   3.166358E-06
 Dsol_rc =      -0.01666770     -0.00951981     -0.38309937
 Dele =       0.00000000      0.00000000      0.40230804
alpha =   6.000000E-01
DIPOLC =       0.00000000      0.00000000     -0.03289275
ZVAL =  -3.289275E-01
 Dsol_rc =      -0.01666770     -0.00951981     -0.38309937
 Dele =       0.00000000      0.00000000      0.40230804
alpha =   6.000000E-01
DIPOLC =       0.00000000      0.00000000     -0.03289275
ZVAL =  -3.289275E-01
 Begin Solvation calculations
  rms_SCF =   1.103682094826673E-004 tol =   1.103682094826673E-005
 Begin minimization
 Creating dielectric and ionic cavities
  area:      239.955737934748     
  volume:    3289.03514638200     
  A_cav:    0.210921093644643     
  qion_max:     4.88458638870947     
  Solving nonlinear dielectric/ionic screening model
  Starting outer loop
        iter                  A_solv                     rms
 resid(G=0) =   3.119431487973168E-005
  NLPB:    0   0.233775988262671E+00   0.633135829207117E-01
   LPB:        0.233775988262671E+00   0.633135752360626E-01
   LPB:    0   0.233775988268541E+00   0.632960030185711E-01   0.376323E-06   0.000000E+00   0.828925E+02   0.311943E-04
   LPB:    1   0.234708035808003E+00   0.524008850118794E+00   0.100437E+00   0.000000E+00   0.416626E+02  -0.430516E-21
   LPB:    2   0.236933878473813E+00   0.332949203981669E+00   0.202055E-01   0.118708E+02   0.584518E+02   0.222301E-14
   LPB:    3   0.241578298119456E+00   0.176057918455379E+00   0.345612E-01   0.121988E+01   0.356454E+02   0.190748E-14
   LPB:    4   0.242080305935168E+00   0.282761142323967E-01   0.111137E-01   0.336132E+00   0.178094E+03  -0.116344E-13
   LPB:    5   0.242169299177623E+00   0.193073758660837E-01   0.176204E-01   0.111812E+00   0.984403E+03  -0.108265E-13
   LPB:    6   0.242195535221875E+00   0.505931348338819E-01   0.168934E-01   0.307497E+00   0.549579E+03  -0.109520E-13
   LPB:    7   0.242204871007122E+00   0.137223663521039E-01   0.589800E-02   0.101921E+01   0.355745E+03  -0.110594E-13
   LPB:    8   0.242215097407838E+00   0.623700065583064E-02   0.231519E-01   0.279055E+00   0.540554E+03  -0.110659E-13
    LS:    0   0.242215092735162E+00   0.843910447249099E-02   0.168782182903289E-01
 resid(G=0) =  -2.782775196982779E-006
  NLPB:    1   0.242215092735162E+00   0.636868560842653E-02
   LPB:        0.242215092735162E+00   0.636868500046449E-02
   LPB:    0   0.242215092735209E+00   0.637286227340041E-02  -0.335741E-07   0.000000E+00   0.828845E+02  -0.278278E-05
   LPB:    1   0.242218432520369E+00   0.573228301795693E-02   0.201123E-01   0.000000E+00   0.179449E+03   0.267078E-21
   LPB:    2   0.242220160698627E+00   0.180663417157152E-01   0.211112E-01   0.492968E+00   0.445819E+03  -0.802164E-16
   LPB:    3   0.242221700652139E+00   0.472233144864297E-02   0.794679E-02   0.236722E+01   0.376547E+03  -0.151265E-15
   LPB:    4   0.242223327738763E+00   0.292488258002004E-02   0.259255E-01   0.323868E+00   0.467098E+03  -0.222822E-15
   LPB:    5   0.242224337822522E+00   0.408720512545511E-02   0.225443E-01   0.713899E+00   0.445336E+03  -0.316498E-15
   LPB:    6   0.242224803745183E+00   0.218286839520834E-02   0.149611E-01   0.695072E+00   0.184026E+03  -0.403288E-15
   LPB:    7   0.242225008505660E+00   0.360012576464252E-02   0.173099E-01   0.379839E+00   0.485390E+03  -0.445269E-15
   LPB:    8   0.242225209963271E+00   0.344035586369446E-02   0.161815E-01   0.105248E+01   0.112322E+03  -0.470671E-15
   LPB:    9   0.242225388565767E+00   0.241792516968850E-02   0.182175E-01   0.787470E+00   0.458368E+03  -0.534569E-15
   LPB:   10   0.242225555350014E+00   0.938855303560791E-03   0.192168E-01   0.885268E+00   0.162797E+03  -0.575445E-15
   LPB:   11   0.242225666095205E+00   0.573551048873177E-03   0.353573E-01   0.360887E+00   0.466851E+03  -0.592918E-15
    LS:    0   0.242225649733111E+00   0.105569979488296E-04   0.211467200867976E-04
 resid(G=0) =  -3.208597042225758E-008
  NLPB:    2   0.242225649733111E+00   0.572938067759932E-03
   LPB:        0.242225649733111E+00   0.572938066861484E-03
   LPB:    0   0.242225649733111E+00   0.572947219902931E-03  -0.387115E-09   0.000000E+00   0.828849E+02  -0.320860E-07
   LPB:    1   0.242225679872735E+00   0.115529209735508E-02   0.165854E-01   0.000000E+00   0.613515E+03  -0.303769E-24
   LPB:    2   0.242225695340025E+00   0.138397071255034E-02   0.103715E-01   0.820650E+00   0.369667E+03  -0.172238E-17
   LPB:    3   0.242225718292972E+00   0.937937456348917E-03   0.139518E-01   0.110316E+01   0.442294E+03  -0.317902E-17
   LPB:    4   0.242225749737541E+00   0.370612466901318E-03   0.195741E-01   0.976464E+00   0.966649E+03  -0.580163E-17
   LPB:    5   0.242225770911902E+00   0.949081376946263E-03   0.312576E-01   0.421687E+00   0.382402E+03  -0.103970E-16
   LPB:    6   0.242225779861177E+00   0.745784307265421E-03   0.130204E-01   0.101463E+01   0.195169E+03  -0.155185E-16
   LPB:    7   0.242225793979650E+00   0.388922359445098E-03   0.214586E-01   0.957244E+00   0.256044E+03  -0.208400E-16
   LPB:    8   0.242225804890933E+00   0.418480744923187E-03   0.235393E-01   0.704524E+00   0.479276E+03  -0.337107E-16
   LPB:    9   0.242225813314929E+00   0.296509748627661E-03   0.193830E-01   0.937596E+00   0.666575E+03  -0.468056E-16
   LPB:   10   0.242225818595712E+00   0.237257787229428E-03   0.204539E-01   0.594052E+00   0.550862E+03  -0.606910E-16
   LPB:   11   0.242225822331108E+00   0.311657634364292E-03   0.206529E-01   0.700541E+00   0.413205E+03  -0.703318E-16
   LPB:   12   0.242225824171835E+00   0.584781170915917E-03   0.127963E-01   0.795337E+00   0.242043E+03  -0.780015E-16
   LPB:   13   0.242225826999817E+00   0.214441323338460E-03   0.119912E-01   0.163949E+01   0.243915E+03  -0.832027E-16
   LPB:   14   0.242225829273060E+00   0.116406451183525E-03   0.221342E-01   0.435478E+00   0.182889E+03  -0.912145E-16
   LPB:   15   0.242225830621492E+00   0.656141674364905E-04   0.249970E-01   0.525242E+00   0.505035E+03  -0.101945E-15
   LPB:   16   0.242225831250307E+00   0.454228049252096E-04   0.215765E-01   0.540257E+00   0.796716E+03  -0.111993E-15
    LS:    0   0.242225831254256E+00   0.181521145226071E-06   0.363034392052355E-06
 resid(G=0) =  -6.145823017167373E-010
  NLPB:    3   0.242225831254256E+00   0.453528671826595E-04
   LPB:        0.242225831254256E+00   0.453528671784954E-04
   LPB:    0   0.242225831254256E+00   0.453525810697884E-04  -0.741489E-11   0.000000E+00   0.828849E+02  -0.614582E-09
   LPB:    1   0.242225831536759E+00   0.383771336565665E-04   0.180783E-01   0.000000E+00   0.781340E+03   0.602385E-25
   LPB:    2   0.242225831811609E+00   0.456171277888007E-04   0.314879E-01   0.558581E+00   0.897342E+03  -0.364093E-18
   LPB:    3   0.242225832080495E+00   0.618125308659181E-04   0.330079E-01   0.933253E+00   0.225378E+03  -0.680182E-18
   LPB:    4   0.242225832307437E+00   0.126879446722008E-03   0.234035E-01   0.119037E+01   0.412622E+03  -0.225213E-17
   LPB:    5   0.242225832399004E+00   0.818986780322467E-04   0.729858E-02   0.129380E+01   0.310787E+03  -0.458220E-17
   LPB:    6   0.242225832558949E+00   0.413676555722351E-04   0.200331E-01   0.636389E+00   0.464916E+03  -0.557262E-17
   LPB:    7   0.242225832688904E+00   0.635158285776099E-04   0.217403E-01   0.748695E+00   0.488240E+03  -0.747053E-17
   LPB:    8   0.242225832787958E+00   0.747190353635668E-04   0.178945E-01   0.926029E+00   0.255905E+03  -0.895300E-17
   LPB:    9   0.242225832858584E+00   0.419985177001673E-04   0.139628E-01   0.913776E+00   0.250698E+03  -0.103131E-16
   LPB:   10   0.242225832912862E+00   0.340070568669570E-04   0.170456E-01   0.629525E+00   0.514026E+03  -0.113321E-16
   LPB:   11   0.242225832955273E+00   0.236372436623877E-04   0.187316E-01   0.711049E+00   0.292861E+03  -0.125066E-16
   LPB:   12   0.242225832995755E+00   0.107318798594705E-04   0.305650E-01   0.584969E+00   0.227635E+03  -0.137023E-16
   LPB:   13   0.242225833024754E+00   0.160846355249383E-04   0.305831E-01   0.715907E+00   0.485221E+03  -0.154414E-16
   LPB:   14   0.242225833040539E+00   0.111329971399941E-04   0.177215E-01   0.939397E+00   0.508076E+03  -0.166819E-16
   LPB:   15   0.242225833050516E+00   0.977005081343668E-05   0.206430E-01   0.542631E+00   0.575010E+03  -0.174059E-16
   LPB:   16   0.242225833062091E+00   0.197156373279416E-04   0.294766E-01   0.812474E+00   0.458865E+03  -0.178735E-16
   LPB:   17   0.242225833069183E+00   0.311532092052309E-04   0.122556E-01   0.147344E+01   0.295909E+03  -0.184845E-16
   LPB:   18   0.242225833074221E+00   0.598218721713371E-05   0.779264E-02   0.111748E+01   0.333378E+03  -0.189407E-16
   LPB:   19   0.242225833080909E+00   0.494604936560318E-05   0.401002E-01   0.257932E+00   0.407093E+03  -0.192630E-16
   LPB:   20   0.242225833085296E+00   0.337443013719281E-05   0.310965E-01   0.845935E+00   0.257683E+03  -0.198102E-16
    LS:    0   0.242225833085237E+00   0.183098119999059E-08   0.366208013776814E-08
 resid(G=0) =  -1.140476602046192E-011
  NLPB:    4   0.242225833085237E+00   0.337583137272419E-05
  Finished solving NLPB equations
 End minimization
 Ecorr=   1953.37531629215     
 A_corr=  0.453146926729881     
 Ecorr_band=  -1952.92216936542     
 End Solvation calculations
RMM:  41    -0.194773213052E+03   -0.20825E-02   -0.10926E-03 12096   0.277E-02    0.203E-01
deltaQ =   3.166347E-06
 Dsol_rc =      -0.01663715     -0.00950530     -0.57259277
 Dele =       0.00000000      0.00000000      0.49530703
alpha =   6.000000E-01
DIPOLC =       0.00000000      0.00000000     -0.05952854
ZVAL =  -5.952854E-01
deltaQ =   3.166347E-06
 Dsol_rc =      -0.01663715     -0.00950530     -0.57259277
 Dele =       0.00000000      0.00000000      0.49530703
alpha =   6.000000E-01
DIPOLC =       0.00000000      0.00000000     -0.05952854
ZVAL =  -5.952854E-01
deltaQ =   3.166347E-06
deltaQ =   3.166347E-06
 Dsol_rc =      -0.01663715     -0.00950530     -0.57259277
 Dele =       0.00000000      0.00000000      0.49530703
alpha =   6.000000E-01
DIPOLC =       0.00000000      0.00000000     -0.05952854
ZVAL =  -5.952854E-01
deltaQ =   3.166347E-06
 Dsol_rc =      -0.01663715     -0.00950530     -0.57259277
 Dele =       0.00000000      0.00000000      0.49530703
alpha =   6.000000E-01
DIPOLC =       0.00000000      0.00000000     -0.05952854
ZVAL =  -5.952854E-01
deltaQ =   3.166347E-06
 Dsol_rc =      -0.01663715     -0.00950530     -0.57259277
 Dele =       0.00000000      0.00000000      0.49530703
alpha =   6.000000E-01
DIPOLC =       0.00000000      0.00000000     -0.05952854
ZVAL =  -5.952854E-01
deltaQ =   3.166347E-06
 Dsol_rc =      -0.01663715     -0.00950530     -0.57259277
 Dele =       0.00000000      0.00000000      0.49530703
alpha =   6.000000E-01
DIPOLC =       0.00000000      0.00000000     -0.05952854
ZVAL =  -5.952854E-01
deltaQ =   3.166347E-06
 Dsol_rc =      -0.01663715     -0.00950530     -0.57259277
 Dele =       0.00000000      0.00000000      0.49530703
alpha =   6.000000E-01
DIPOLC =       0.00000000      0.00000000     -0.05952854
ZVAL =  -5.952854E-01
deltaQ =   3.166347E-06
 Dsol_rc =      -0.01663715     -0.00950530     -0.57259277
 Dele =       0.00000000      0.00000000      0.49530703
alpha =   6.000000E-01
DIPOLC =       0.00000000      0.00000000     -0.05952854
ZVAL =  -5.952854E-01
deltaQ =   3.166347E-06
 Dsol_rc =      -0.01663715     -0.00950530     -0.57259277
 Dele =       0.00000000      0.00000000      0.49530703
alpha =   6.000000E-01
DIPOLC =       0.00000000      0.00000000     -0.05952854
ZVAL =  -5.952854E-01
deltaQ =   3.166347E-06
 Dsol_rc =      -0.01663715     -0.00950530     -0.57259277
 Dele =       0.00000000      0.00000000      0.49530703
alpha =   6.000000E-01
DIPOLC =       0.00000000      0.00000000     -0.05952854
ZVAL =  -5.952854E-01
deltaQ =   3.166347E-06
 Dsol_rc =      -0.01663715     -0.00950530     -0.57259277
 Dele =       0.00000000      0.00000000      0.49530703
alpha =   6.000000E-01
DIPOLC =       0.00000000      0.00000000     -0.05952854
ZVAL =  -5.952854E-01
deltaQ =   3.166347E-06
 Dsol_rc =      -0.01663715     -0.00950530     -0.57259277
 Dele =       0.00000000      0.00000000      0.49530703
alpha =   6.000000E-01
DIPOLC =       0.00000000      0.00000000     -0.05952854
ZVAL =  -5.952854E-01
deltaQ =   3.166347E-06
 Dsol_rc =      -0.01663715     -0.00950530     -0.57259277
 Dele =       0.00000000      0.00000000      0.49530703
alpha =   6.000000E-01
DIPOLC =       0.00000000      0.00000000     -0.05952854
ZVAL =  -5.952854E-01
deltaQ =   3.166347E-06
 Dsol_rc =      -0.01663715     -0.00950530     -0.57259277
 Dele =       0.00000000      0.00000000      0.49530703
alpha =   6.000000E-01
DIPOLC =       0.00000000      0.00000000     -0.05952854
ZVAL =  -5.952854E-01
deltaQ =   3.166347E-06
 Dsol_rc =      -0.01663715     -0.00950530     -0.57259277
 Dele =       0.00000000      0.00000000      0.49530703
alpha =   6.000000E-01
DIPOLC =       0.00000000      0.00000000     -0.05952854
ZVAL =  -5.952854E-01
 Dsol_rc =      -0.01663715     -0.00950530     -0.57259277
 Dele =       0.00000000      0.00000000      0.49530703
alpha =   6.000000E-01
DIPOLC =       0.00000000      0.00000000     -0.05952854
ZVAL =  -5.952854E-01
 Begin Solvation calculations
  rms_SCF =   1.103682094826673E-004 tol =   1.103682094826673E-005
 Begin minimization
 Creating dielectric and ionic cavities
  area:      239.956131782696     
  volume:    3288.94050017312     
  A_cav:    0.210921439836990     
  qion_max:     4.88485243989436     
  Solving nonlinear dielectric/ionic screening model
  Starting outer loop
        iter                  A_solv                     rms
 resid(G=0) =   2.092773801035119E-005
  NLPB:    0   0.237790966013555E+00   0.169910061437242E-01
   LPB:        0.237790966013555E+00   0.169909932554238E-01
   LPB:    0   0.237790966016197E+00   0.169896129986103E-01   0.252478E-06   0.000000E+00   0.828894E+02   0.209277E-04
   LPB:    1   0.237902016128809E+00   0.173795240340218E+00   0.101907E+00   0.000000E+00   0.698335E+02   0.136924E-20
   LPB:    2   0.238136883417490E+00   0.128166276546538E+00   0.199800E-01   0.107873E+02   0.723636E+02   0.179132E-15
   LPB:    3   0.238665999414049E+00   0.901761932283395E-01   0.311365E-01   0.144562E+01   0.125310E+02  -0.191285E-14
   LPB:    4   0.238762495670601E+00   0.906205731181689E-02   0.109807E-01   0.517130E+00   0.983483E+02  -0.103732E-13
   LPB:    5   0.238773058550251E+00   0.379002361870271E-02   0.166374E-01   0.722463E-01   0.431518E+03  -0.111140E-13
   LPB:    6   0.238775628471201E+00   0.118165132644665E-01   0.213059E-01   0.189987E+00   0.483627E+03  -0.112405E-13
   LPB:    7   0.238776180133975E+00   0.481638902947712E-02   0.574880E-02   0.795566E+00   0.282190E+03  -0.113324E-13
   LPB:    8   0.238776902515917E+00   0.164700161073006E-02   0.196850E-01   0.382416E+00   0.489894E+03  -0.113444E-13
    LS:    0   0.238776911836411E+00   0.985945822855633E-03   0.197187300472412E-02
 resid(G=0) =  -3.620945073917747E-007
  NLPB:    1   0.238776911836411E+00   0.165273281774494E-02
   LPB:        0.238776911836411E+00   0.165273277807959E-02
   LPB:    0   0.238776911836411E+00   0.165311180130092E-02  -0.436858E-08   0.000000E+00   0.828861E+02  -0.362095E-06
   LPB:    1   0.238777150479476E+00   0.180088646839333E-02   0.187220E-01   0.000000E+00   0.306313E+03   0.938882E-23
   LPB:    2   0.238777252197495E+00   0.472718421293616E-02   0.156966E-01   0.508389E+00   0.391888E+03  -0.112755E-16
   LPB:    3   0.238777393066764E+00   0.826407467497090E-03   0.103225E-01   0.210591E+01   0.469144E+03   0.429359E-18
   LPB:    4   0.238777514496558E+00   0.692377087592420E-03   0.299876E-01   0.296723E+00   0.543179E+03   0.191430E-16
   LPB:    5   0.238777576450896E+00   0.110349025511136E-02   0.218850E-01   0.699103E+00   0.403125E+03   0.348879E-16
   LPB:    6   0.238777601519459E+00   0.499861485401672E-03   0.133764E-01   0.662013E+00   0.211761E+03   0.424293E-16
   LPB:    7   0.238777618526835E+00   0.964046284856962E-03   0.233690E-01   0.388335E+00   0.425912E+03   0.417729E-16
   LPB:    8   0.238777632480730E+00   0.935308111962660E-03   0.139806E-01   0.137142E+01   0.119910E+03   0.418003E-16
   LPB:    9   0.238777645991213E+00   0.626053821966398E-03   0.191428E-01   0.707125E+00   0.330475E+03   0.289034E-16
   LPB:   10   0.238777655086121E+00   0.308173829056304E-03   0.173817E-01   0.741381E+00   0.150711E+03   0.196471E-16
   LPB:   11   0.238777661724394E+00   0.132502145490047E-03   0.315461E-01   0.402164E+00   0.263948E+03   0.166215E-16
    LS:    0   0.238777661091988E+00   0.749255577275898E-06   0.149977596694908E-05
 resid(G=0) =  -5.500724625795428E-009
  NLPB:    2   0.238777661091988E+00   0.130503601247662E-03
   LPB:        0.238777661091988E+00   0.130503601131735E-03
   LPB:    0   0.238777661091988E+00   0.130498733791207E-03  -0.663646E-10   0.000000E+00   0.828864E+02  -0.550072E-08
   LPB:    1   0.238777663291131E+00   0.202545789549085E-03   0.178728E-01   0.000000E+00   0.598962E+03   0.184932E-24
   LPB:    2   0.238777664753624E+00   0.438005585953267E-03   0.167798E-01   0.708346E+00   0.360694E+03  -0.949802E-18
   LPB:    3   0.238777666288749E+00   0.318531132602045E-03   0.104440E-01   0.168643E+01   0.379473E+03  -0.168796E-17
   LPB:    4   0.238777668037928E+00   0.105200172208006E-03   0.143704E-01   0.828111E+00   0.562545E+03  -0.284607E-17
   LPB:    5   0.238777669636715E+00   0.202321208763994E-03   0.295682E-01   0.444222E+00   0.838378E+03  -0.441663E-17
   LPB:    6   0.238777670309123E+00   0.226624533008857E-03   0.148529E-01   0.837253E+00   0.144746E+03  -0.625146E-17
   LPB:    7   0.238777671203434E+00   0.124349315948302E-03   0.182294E-01   0.108366E+01   0.299591E+03  -0.897274E-17
   LPB:    8   0.238777672104509E+00   0.128604345457854E-03   0.235806E-01   0.778917E+00   0.396770E+03  -0.120108E-16
   LPB:    9   0.238777672761883E+00   0.667703315593248E-04   0.198137E-01   0.868240E+00   0.196755E+03  -0.151261E-16
   LPB:   10   0.238777673121446E+00   0.823794226836926E-04   0.238542E-01   0.454321E+00   0.281787E+03  -0.212125E-16
   LPB:   11   0.238777673372209E+00   0.518646807842339E-04   0.171856E-01   0.968029E+00   0.249778E+03  -0.250870E-16
   LPB:   12   0.238777673665915E+00   0.539604056849351E-04   0.348531E-01   0.577531E+00   0.758588E+02  -0.279967E-16
   LPB:   13   0.238777673837037E+00   0.147677026294544E-03   0.205007E-01   0.990519E+00   0.226349E+03  -0.343303E-16
   LPB:   14   0.238777673916272E+00   0.344367607505916E-04   0.615039E-02   0.154341E+01   0.279574E+03  -0.389196E-16
   LPB:   15   0.238777673982094E+00   0.138156080743635E-04   0.209770E-01   0.243558E+00   0.574172E+03  -0.410919E-16
   LPB:   16   0.238777674019874E+00   0.146073221996573E-04   0.306906E-01   0.392316E+00   0.188981E+03  -0.428984E-16
   LPB:   17   0.238777674053066E+00   0.110915511150206E-04   0.274633E-01   0.981808E+00   0.263076E+03  -0.441759E-16
    LS:    0   0.238777674052645E+00   0.129606569365670E-07   0.259221559999042E-07
 resid(G=0) =  -3.730139808144628E-011
  NLPB:    3   0.238777674052645E+00   0.110970200029395E-04
   LPB:        0.238777674052645E+00   0.110970200028768E-04
   LPB:    0   0.238777674052645E+00   0.110970343592095E-04  -0.450031E-12   0.000000E+00   0.828864E+02  -0.373014E-10
   LPB:    1   0.238777674064949E+00   0.810970096190865E-05   0.154166E-01   0.000000E+00   0.744895E+03  -0.180155E-26
   LPB:    2   0.238777674077698E+00   0.656170737088396E-05   0.341609E-01   0.467584E+00   0.132755E+04  -0.212465E-19
   LPB:    3   0.238777674090674E+00   0.106131107872024E-04   0.345458E-01   0.100646E+01   0.451767E+03  -0.147552E-18
   LPB:    4   0.238777674102165E+00   0.420639790040133E-04   0.254678E-01   0.120119E+01   0.306504E+03  -0.388016E-18
   LPB:    5   0.238777674109814E+00   0.127038478857272E-04   0.715010E-02   0.237126E+01   0.304750E+03  -0.583523E-18
   LPB:    6   0.238777674119302E+00   0.767520555182902E-05   0.240363E-01   0.368944E+00   0.469319E+03  -0.717013E-18
   LPB:    7   0.238777674124737E+00   0.128060734034197E-04   0.249883E-01   0.551071E+00   0.135904E+03  -0.905119E-18
   LPB:    8   0.238777674128077E+00   0.120122768723465E-04   0.149331E-01   0.102822E+01   0.230005E+03  -0.127734E-17
   LPB:    9   0.238777674130932E+00   0.114968937208472E-04   0.163003E-01   0.783039E+00   0.320855E+03  -0.160984E-17
   LPB:   10   0.238777674133725E+00   0.694208756133521E-05   0.186101E-01   0.856901E+00   0.149292E+03  -0.188930E-17
   LPB:   11   0.238777674135556E+00   0.384617547635273E-05   0.176966E-01   0.689554E+00   0.133049E+03  -0.227159E-17
   LPB:   12   0.238777674137020E+00   0.232601962634751E-05   0.245827E-01   0.575543E+00   0.255726E+03  -0.257233E-17
   LPB:   13   0.238777674138029E+00   0.247258366408281E-05   0.261462E-01   0.647838E+00   0.200782E+03  -0.283917E-17
   LPB:   14   0.238777674138626E+00   0.288423533426391E-05   0.219977E-01   0.703307E+00   0.362974E+03  -0.305800E-17
   LPB:   15   0.238777674139173E+00   0.308630941074887E-05   0.251177E-01   0.802885E+00   0.989638E+02  -0.320469E-17
   LPB:   16   0.238777674139453E+00   0.593037950175592E-05   0.145288E-01   0.884354E+00   0.150324E+03  -0.337465E-17
   LPB:   17   0.238777674139692E+00   0.362941480942293E-05   0.945681E-02   0.131122E+01   0.200159E+03  -0.346497E-17
   LPB:   18   0.238777674140035E+00   0.237622316112737E-05   0.182811E-01   0.741832E+00   0.203093E+03  -0.355007E-17
   LPB:   19   0.238777674140411E+00   0.119639618556407E-05   0.281004E-01   0.714578E+00   0.611810E+02  -0.366571E-17
   LPB:   20   0.238777674140658E+00   0.831558876932716E-06   0.283706E-01   0.649167E+00   0.204748E+03  -0.382826E-17
    LS:    0   0.238777674140650E+00   0.880052974938650E-10   0.176025459549821E-09
 resid(G=0) =  -7.096684351282079E-013
  NLPB:    4   0.238777674140650E+00   0.831512484889998E-06
  Finished solving NLPB equations
 End minimization
 Ecorr=   1935.58917746139     
 A_corr=  0.449699113977640     
 Ecorr_band=  -1935.13947834742     
 End Solvation calculations
RMM:  42    -0.194770018285E+03    0.31948E-02   -0.74657E-04 12096   0.241E-02    0.906E-02
deltaQ =   3.164186E-06
 Dsol_rc =      -0.01665041     -0.00950878     -0.63452503
 Dele =       0.00000000      0.00000000      0.55078836
alpha =   6.000000E-01
DIPOLC =       0.00000000      0.00000000     -0.07405342
ZVAL =  -7.405342E-01
deltaQ =   3.164186E-06
deltaQ =   3.164186E-06
 Dsol_rc =      -0.01665041     -0.00950878     -0.63452503
 Dele =       0.00000000      0.00000000      0.55078836
alpha =   6.000000E-01
DIPOLC =       0.00000000      0.00000000     -0.07405342
ZVAL =  -7.405342E-01
deltaQ =   3.164186E-06
 Dsol_rc =      -0.01665041     -0.00950878     -0.63452503
 Dele =       0.00000000      0.00000000      0.55078836
alpha =   6.000000E-01
DIPOLC =       0.00000000      0.00000000     -0.07405342
ZVAL =  -7.405342E-01
deltaQ =   3.164186E-06
 Dsol_rc =      -0.01665041     -0.00950878     -0.63452503
 Dele =       0.00000000      0.00000000      0.55078836
alpha =   6.000000E-01
DIPOLC =       0.00000000      0.00000000     -0.07405342
ZVAL =  -7.405342E-01
deltaQ =   3.164186E-06
 Dsol_rc =      -0.01665041     -0.00950878     -0.63452503
 Dele =       0.00000000      0.00000000      0.55078836
alpha =   6.000000E-01
DIPOLC =       0.00000000      0.00000000     -0.07405342
ZVAL =  -7.405342E-01
deltaQ =   3.164186E-06
 Dsol_rc =      -0.01665041     -0.00950878     -0.63452503
 Dele =       0.00000000      0.00000000      0.55078836
alpha =   6.000000E-01
DIPOLC =       0.00000000      0.00000000     -0.07405342
ZVAL =  -7.405342E-01
deltaQ =   3.164186E-06
 Dsol_rc =      -0.01665041     -0.00950878     -0.63452503
 Dele =       0.00000000      0.00000000      0.55078836
alpha =   6.000000E-01
DIPOLC =       0.00000000      0.00000000     -0.07405342
ZVAL =  -7.405342E-01
deltaQ =   3.164186E-06
 Dsol_rc =      -0.01665041     -0.00950878     -0.63452503
 Dele =       0.00000000      0.00000000      0.55078836
alpha =   6.000000E-01
DIPOLC =       0.00000000      0.00000000     -0.07405342
ZVAL =  -7.405342E-01
deltaQ =   3.164186E-06
 Dsol_rc =      -0.01665041     -0.00950878     -0.63452503
 Dele =       0.00000000      0.00000000      0.55078836
alpha =   6.000000E-01
DIPOLC =       0.00000000      0.00000000     -0.07405342
ZVAL =  -7.405342E-01
deltaQ =   3.164186E-06
 Dsol_rc =      -0.01665041     -0.00950878     -0.63452503
 Dele =       0.00000000      0.00000000      0.55078836
alpha =   6.000000E-01
DIPOLC =       0.00000000      0.00000000     -0.07405342
ZVAL =  -7.405342E-01
deltaQ =   3.164186E-06
 Dsol_rc =      -0.01665041     -0.00950878     -0.63452503
 Dele =       0.00000000      0.00000000      0.55078836
alpha =   6.000000E-01
DIPOLC =       0.00000000      0.00000000     -0.07405342
ZVAL =  -7.405342E-01
deltaQ =   3.164186E-06
 Dsol_rc =      -0.01665041     -0.00950878     -0.63452503
 Dele =       0.00000000      0.00000000      0.55078836
alpha =   6.000000E-01
DIPOLC =       0.00000000      0.00000000     -0.07405342
ZVAL =  -7.405342E-01
deltaQ =   3.164186E-06
 Dsol_rc =      -0.01665041     -0.00950878     -0.63452503
 Dele =       0.00000000      0.00000000      0.55078836
alpha =   6.000000E-01
DIPOLC =       0.00000000      0.00000000     -0.07405342
ZVAL =  -7.405342E-01
deltaQ =   3.164186E-06
 Dsol_rc =      -0.01665041     -0.00950878     -0.63452503
 Dele =       0.00000000      0.00000000      0.55078836
alpha =   6.000000E-01
DIPOLC =       0.00000000      0.00000000     -0.07405342
ZVAL =  -7.405342E-01
deltaQ =   3.164186E-06
 Dsol_rc =      -0.01665041     -0.00950878     -0.63452503
 Dele =       0.00000000      0.00000000      0.55078836
alpha =   6.000000E-01
DIPOLC =       0.00000000      0.00000000     -0.07405342
ZVAL =  -7.405342E-01
 Dsol_rc =      -0.01665041     -0.00950878     -0.63452503
 Dele =       0.00000000      0.00000000      0.55078836
alpha =   6.000000E-01
DIPOLC =       0.00000000      0.00000000     -0.07405342
ZVAL =  -7.405342E-01
 Begin Solvation calculations
  rms_SCF =   1.103682094826673E-004 tol =   1.103682094826673E-005
 Begin minimization
 Creating dielectric and ionic cavities
  area:      239.956396384907     
  volume:    3288.88718886109     
  A_cav:    0.210921672422333     
  qion_max:     4.88500246911259     
  Solving nonlinear dielectric/ionic screening model
  Starting outer loop
        iter                  A_solv                     rms
 resid(G=0) =   1.237368786394244E-005
  NLPB:    0   0.236524877605439E+00   0.914576192940345E-02
   LPB:        0.236524877605439E+00   0.914575355895698E-02
   LPB:    0   0.236524877606362E+00   0.914305417765605E-02   0.149280E-06   0.000000E+00   0.828889E+02   0.123737E-04
   LPB:    1   0.236556359007350E+00   0.917397041022374E-01   0.974908E-01   0.000000E+00   0.713608E+02  -0.376681E-21
   LPB:    2   0.236623457080393E+00   0.697298063100237E-01   0.202930E-01   0.102394E+02   0.896730E+02   0.352000E-15
   LPB:    3   0.236780037628673E+00   0.508572063879823E-01   0.314051E-01   0.150790E+01   0.144413E+02   0.898823E-16
   LPB:    4   0.236811034220781E+00   0.549952727097471E-02   0.111343E-01   0.558361E+00   0.993174E+02  -0.236402E-14
   LPB:    5   0.236814234037592E+00   0.623883847298964E-02   0.158607E-01   0.724689E-01   0.410379E+03  -0.238215E-14
   LPB:    6   0.236814675601075E+00   0.803249303117047E-02   0.863930E-02   0.253344E+00   0.308959E+03  -0.239580E-14
   LPB:    7   0.236815209867910E+00   0.937072785423321E-03   0.111117E-01   0.940726E+00   0.445511E+03  -0.241004E-14
   LPB:    8   0.236815430503580E+00   0.877874636109885E-03   0.253663E-01   0.180901E+00   0.454751E+03  -0.243069E-14
    LS:    0   0.236815432165695E+00   0.290554560256007E-03   0.581105796281713E-03
 resid(G=0) =  -1.150308813480105E-007
  NLPB:    1   0.236815432165695E+00   0.879505784868470E-03
   LPB:        0.236815432165695E+00   0.879505777346005E-03
   LPB:    0   0.236815432165695E+00   0.879626696981410E-03  -0.138780E-08   0.000000E+00   0.828870E+02  -0.115031E-06
   LPB:    1   0.236815502768235E+00   0.572530634710857E-03   0.192037E-01   0.000000E+00   0.301904E+03  -0.579604E-23
   LPB:    2   0.236815558028160E+00   0.148407016484307E-02   0.335967E-01   0.447381E+00   0.769579E+03  -0.129779E-16
   LPB:    3   0.236815575895219E+00   0.142706168944159E-02   0.819122E-02   0.132615E+01   0.302081E+03  -0.104057E-16
   LPB:    4   0.236815604294286E+00   0.745743657441338E-03   0.152976E-01   0.851089E+00   0.413692E+03  -0.104116E-16
   LPB:    5   0.236815621469838E+00   0.494028311545814E-03   0.155428E-01   0.595254E+00   0.344116E+03  -0.107901E-16
   LPB:    6   0.236815632132103E+00   0.152302600452140E-03   0.180427E-01   0.534768E+00   0.319296E+03  -0.116244E-16
   LPB:    7   0.236815637813450E+00   0.441942566235290E-03   0.301667E-01   0.318696E+00   0.395725E+03  -0.126492E-16
   LPB:    8   0.236815641667553E+00   0.589076066721819E-03   0.141817E-01   0.144301E+01   0.126723E+03  -0.134352E-16
   LPB:    9   0.236815645380847E+00   0.349735585806739E-03   0.165969E-01   0.823264E+00   0.262852E+03  -0.185305E-16
   LPB:   10   0.236815648000960E+00   0.166807355919023E-03   0.175055E-01   0.668980E+00   0.145896E+03  -0.213114E-16
   LPB:   11   0.236815649889481E+00   0.744439471954206E-04   0.317646E-01   0.397221E+00   0.231837E+03  -0.190217E-16
    LS:    0   0.236815649776990E+00   0.217611294706099E-06   0.435447572634944E-06
 resid(G=0) =  -1.576967778582627E-009
  NLPB:    2   0.236815649776990E+00   0.738754551682975E-04
   LPB:        0.236815649776990E+00   0.738754551514663E-04
   LPB:    0   0.236815649776990E+00   0.738741186009727E-04  -0.190255E-10   0.000000E+00   0.828871E+02  -0.157697E-08
   LPB:    1   0.236815650401294E+00   0.876810451345420E-04   0.170229E-01   0.000000E+00   0.598363E+03   0.290875E-25
   LPB:    2   0.236815650968817E+00   0.887292094111384E-04   0.226119E-01   0.684359E+00   0.500463E+03  -0.901444E-18
   LPB:    3   0.236815651647232E+00   0.131966948224696E-03   0.250752E-01   0.107796E+01   0.619005E+03  -0.170157E-17
   LPB:    4   0.236815651885172E+00   0.195164104319546E-03   0.109222E-01   0.805208E+00   0.338919E+03  -0.307163E-17
   LPB:    5   0.236815652272095E+00   0.134846946163985E-03   0.135526E-01   0.131051E+01   0.492969E+03  -0.354438E-17
   LPB:    6   0.236815652450939E+00   0.108141652478601E-03   0.113760E-01   0.550661E+00   0.163919E+03  -0.460249E-17
   LPB:    7   0.236815652744664E+00   0.500219192805605E-04   0.225362E-01   0.829040E+00   0.321708E+03  -0.557561E-17
   LPB:    8   0.236815653027859E+00   0.645140869697122E-04   0.270824E-01   0.802305E+00   0.558312E+03  -0.707094E-17
   LPB:    9   0.236815653199195E+00   0.367157020473508E-04   0.188907E-01   0.867367E+00   0.162664E+03  -0.890986E-17
   LPB:   10   0.236815653312111E+00   0.402084101205567E-04   0.262407E-01   0.474433E+00   0.281953E+03  -0.119112E-16
   LPB:   11   0.236815653376622E+00   0.325458503407914E-04   0.170896E-01   0.877257E+00   0.220258E+03  -0.139182E-16
   LPB:   12   0.236815653457731E+00   0.284548078679716E-04   0.301312E-01   0.713102E+00   0.741938E+02  -0.152480E-16
   LPB:   13   0.236815653520104E+00   0.156487672046308E-04   0.249174E-01   0.929897E+00   0.255409E+03  -0.177622E-16
   LPB:   14   0.236815653541946E+00   0.309944296374511E-04   0.187079E-01   0.466429E+00   0.498549E+03  -0.198128E-16
   LPB:   15   0.236815653547836E+00   0.230471220760672E-04   0.727445E-02   0.693508E+00   0.271002E+03  -0.205738E-16
   LPB:   16   0.236815653558196E+00   0.750701103883382E-05   0.181171E-01   0.706174E+00   0.243623E+03  -0.207599E-16
   LPB:   17   0.236815653569062E+00   0.480867668574275E-05   0.320941E-01   0.592115E+00   0.247273E+03  -0.210929E-16
    LS:    0   0.236815653568937E+00   0.379194745048217E-08   0.758414439883635E-08
 resid(G=0) =  -1.314742759106480E-011
  NLPB:    3   0.236815653568937E+00   0.481077808738537E-05
  Finished solving NLPB equations
 End minimization
 Ecorr=   1925.99908122574     
 A_corr=  0.447737325991270     
 Ecorr_band=  -1925.55134389975     
 End Solvation calculations
RMM:  43    -0.194769246698E+03    0.77159E-03   -0.17080E-04 12021   0.110E-02    0.500E-02
deltaQ =   3.166805E-06
 Dsol_rc =      -0.01661198     -0.00951117     -0.66868373
 Dele =       0.00000000      0.00000000      0.66904561
alpha =   3.000000E-01
DIPOLC =       0.00000000      0.00000000     -0.05172883
ZVAL =  -5.172883E-01
deltaQ =   3.166805E-06
 Dsol_rc =      -0.01661198     -0.00951117     -0.66868373
 Dele =       0.00000000      0.00000000      0.66904561
alpha =   3.000000E-01
DIPOLC =       0.00000000      0.00000000     -0.05172883
ZVAL =  -5.172883E-01
deltaQ =   3.166805E-06
 Dsol_rc =      -0.01661198     -0.00951117     -0.66868373
 Dele =       0.00000000      0.00000000      0.66904561
alpha =   3.000000E-01
DIPOLC =       0.00000000      0.00000000     -0.05172883
ZVAL =  -5.172883E-01
deltaQ =   3.166805E-06
 Dsol_rc =      -0.01661198     -0.00951117     -0.66868373
 Dele =       0.00000000      0.00000000      0.66904561
alpha =   3.000000E-01
DIPOLC =       0.00000000      0.00000000     -0.05172883
ZVAL =  -5.172883E-01
deltaQ =   3.166805E-06
 Dsol_rc =      -0.01661198     -0.00951117     -0.66868373
 Dele =       0.00000000      0.00000000      0.66904561
alpha =   3.000000E-01
DIPOLC =       0.00000000      0.00000000     -0.05172883
ZVAL =  -5.172883E-01
deltaQ =   3.166805E-06
 Dsol_rc =      -0.01661198     -0.00951117     -0.66868373
 Dele =       0.00000000      0.00000000      0.66904561
alpha =   3.000000E-01
DIPOLC =       0.00000000      0.00000000     -0.05172883
ZVAL =  -5.172883E-01
deltaQ =   3.166805E-06
deltaQ =   3.166805E-06
 Dsol_rc =      -0.01661198     -0.00951117     -0.66868373
 Dele =       0.00000000      0.00000000      0.66904561
alpha =   3.000000E-01
DIPOLC =       0.00000000      0.00000000     -0.05172883
ZVAL =  -5.172883E-01
deltaQ =   3.166805E-06
 Dsol_rc =      -0.01661198     -0.00951117     -0.66868373
 Dele =       0.00000000      0.00000000      0.66904561
alpha =   3.000000E-01
DIPOLC =       0.00000000      0.00000000     -0.05172883
ZVAL =  -5.172883E-01
deltaQ =   3.166805E-06
 Dsol_rc =      -0.01661198     -0.00951117     -0.66868373
 Dele =       0.00000000      0.00000000      0.66904561
alpha =   3.000000E-01
DIPOLC =       0.00000000      0.00000000     -0.05172883
ZVAL =  -5.172883E-01
deltaQ =   3.166805E-06
 Dsol_rc =      -0.01661198     -0.00951117     -0.66868373
 Dele =       0.00000000      0.00000000      0.66904561
alpha =   3.000000E-01
DIPOLC =       0.00000000      0.00000000     -0.05172883
ZVAL =  -5.172883E-01
deltaQ =   3.166805E-06
 Dsol_rc =      -0.01661198     -0.00951117     -0.66868373
 Dele =       0.00000000      0.00000000      0.66904561
alpha =   3.000000E-01
DIPOLC =       0.00000000      0.00000000     -0.05172883
ZVAL =  -5.172883E-01
deltaQ =   3.166805E-06
 Dsol_rc =      -0.01661198     -0.00951117     -0.66868373
 Dele =       0.00000000      0.00000000      0.66904561
alpha =   3.000000E-01
DIPOLC =       0.00000000      0.00000000     -0.05172883
ZVAL =  -5.172883E-01
deltaQ =   3.166805E-06
 Dsol_rc =      -0.01661198     -0.00951117     -0.66868373
 Dele =       0.00000000      0.00000000      0.66904561
alpha =   3.000000E-01
DIPOLC =       0.00000000      0.00000000     -0.05172883
ZVAL =  -5.172883E-01
deltaQ =   3.166805E-06
 Dsol_rc =      -0.01661198     -0.00951117     -0.66868373
 Dele =       0.00000000      0.00000000      0.66904561
alpha =   3.000000E-01
DIPOLC =       0.00000000      0.00000000     -0.05172883
ZVAL =  -5.172883E-01
deltaQ =   3.166805E-06
 Dsol_rc =      -0.01661198     -0.00951117     -0.66868373
 Dele =       0.00000000      0.00000000      0.66904561
alpha =   3.000000E-01
DIPOLC =       0.00000000      0.00000000     -0.05172883
ZVAL =  -5.172883E-01
 Dsol_rc =      -0.01661198     -0.00951117     -0.66868373
 Dele =       0.00000000      0.00000000      0.66904561
alpha =   3.000000E-01
DIPOLC =       0.00000000      0.00000000     -0.05172883
ZVAL =  -5.172883E-01
 Begin Solvation calculations
  rms_SCF =   1.103682094826673E-004 tol =   1.103682094826673E-005
 Begin minimization
 Creating dielectric and ionic cavities
  area:      239.956816370662     
  volume:    3288.80377116958     
  A_cav:    0.210922041589812     
  qion_max:     4.88523688731470     
  Solving nonlinear dielectric/ionic screening model
  Starting outer loop
        iter                  A_solv                     rms
 resid(G=0) =   1.984250936448717E-005
  NLPB:    0   0.231530602593758E+00   0.304297709731009E-01
   LPB:        0.231530602593758E+00   0.304297645036927E-01
   LPB:    0   0.231530602596133E+00   0.304152294203952E-01   0.239381E-06   0.000000E+00   0.828911E+02   0.198425E-04
   LPB:    1   0.231570498573280E+00   0.940887468660483E-01   0.417680E-01   0.000000E+00   0.410829E+02   0.617951E-21
   LPB:    2   0.231662551610876E+00   0.736816412977097E-01   0.214236E-01   0.449842E+01   0.581356E+02   0.483716E-15
   LPB:    3   0.232088603848299E+00   0.926767734328827E-01   0.625746E-01   0.158460E+01   0.230312E+02   0.276934E-15
   LPB:    4   0.232222474615311E+00   0.126033197424061E-01   0.125968E-01   0.156084E+01   0.768201E+02  -0.533026E-14
   LPB:    5   0.232245990837274E+00   0.801153485778790E-02   0.181170E-01   0.122140E+00   0.471726E+03  -0.592822E-14
   LPB:    6   0.232252659301451E+00   0.248307226274047E-01   0.185195E-01   0.277405E+00   0.639453E+03  -0.608618E-14
   LPB:    7   0.232254859919260E+00   0.676318143739390E-02   0.578080E-02   0.105721E+01   0.343153E+03  -0.615779E-14
   LPB:    8   0.232257297005061E+00   0.312093810325337E-02   0.227219E-01   0.281753E+00   0.639270E+03  -0.618240E-14
   LPB:    9   0.232258512906233E+00   0.177706617625540E-02   0.289754E-01   0.391240E+00   0.262149E+03  -0.615750E-14
    LS:    0   0.232258539537112E+00   0.727936943353269E-03   0.145582062494838E-02
 resid(G=0) =  -6.802436810088297E-007
  NLPB:    1   0.232258539537112E+00   0.174979814621990E-02
   LPB:        0.232258539537112E+00   0.174979801399566E-02
   LPB:    0   0.232258539537114E+00   0.174875316591258E-02  -0.820699E-08   0.000000E+00   0.828859E+02  -0.680244E-06
   LPB:    1   0.232258946947864E+00   0.169985461521690E-02   0.212817E-01   0.000000E+00   0.255169E+03   0.286592E-22
   LPB:    2   0.232259263726818E+00   0.201590442914836E-02   0.335879E-01   0.492659E+00   0.420579E+03  -0.329248E-16
   LPB:    3   0.232259423952819E+00   0.405303398924129E-02   0.163497E-01   0.103908E+01   0.359747E+03  -0.878774E-16
   LPB:    4   0.232259551491307E+00   0.328220411490658E-02   0.967880E-02   0.134461E+01   0.379064E+03  -0.119302E-15
   LPB:    5   0.232259675890062E+00   0.125614191047982E-02   0.120814E-01   0.781409E+00   0.377686E+03  -0.147432E-15
   LPB:    6   0.232259800088341E+00   0.792995288487023E-03   0.256166E-01   0.470864E+00   0.385122E+03  -0.178068E-15
   LPB:    7   0.232259853986919E+00   0.197948358126220E-02   0.197178E-01   0.563800E+00   0.506825E+03  -0.214887E-15
   LPB:    8   0.232259875646567E+00   0.536512852001433E-03   0.938928E-02   0.843919E+00   0.139921E+03  -0.222507E-15
   LPB:    9   0.232259901511252E+00   0.505384260476257E-03   0.310250E-01   0.361390E+00   0.346276E+03  -0.227593E-15
   LPB:   10   0.232259923021798E+00   0.773338267556425E-03   0.245542E-01   0.105082E+01   0.214390E+03  -0.241016E-15
   LPB:   11   0.232259941152981E+00   0.363844807547015E-03   0.229937E-01   0.900103E+00   0.158434E+03  -0.261691E-15
   LPB:   12   0.232259951055410E+00   0.412627644593401E-03   0.253621E-01   0.495153E+00   0.793448E+03  -0.272054E-15
   LPB:   13   0.232259957439088E+00   0.219740168270865E-03   0.169179E-01   0.966423E+00   0.201083E+03  -0.282876E-15
   LPB:   14   0.232259961884082E+00   0.115627779772051E-03   0.229759E-01   0.512714E+00   0.914596E+03  -0.294971E-15
    LS:    0   0.232259960549352E+00   0.142101224026581E-05   0.284469394099600E-05
 resid(G=0) =  -3.315466165498826E-009
  NLPB:    2   0.232259960549352E+00   0.117153398436553E-03
   LPB:        0.232259960549352E+00   0.117153398389639E-03
   LPB:    0   0.232259960549352E+00   0.117153983048827E-03  -0.400004E-10   0.000000E+00   0.828857E+02  -0.331547E-08
   LPB:    1   0.232259962529364E+00   0.155041334457629E-03   0.188564E-01   0.000000E+00   0.808974E+03   0.252160E-24
   LPB:    2   0.232259964106279E+00   0.441388025700139E-03   0.223916E-01   0.670677E+00   0.273427E+03  -0.292422E-18
   LPB:    3   0.232259965370199E+00   0.333816919276324E-03   0.907219E-02   0.197826E+01   0.379340E+03  -0.733624E-18
   LPB:    4   0.232259966899686E+00   0.126970205951965E-03   0.149754E-01   0.733095E+00   0.246767E+03  -0.195671E-17
   LPB:    5   0.232259968387377E+00   0.164502768094227E-03   0.244306E-01   0.596226E+00   0.179185E+03  -0.638861E-17
   LPB:    6   0.232259969464368E+00   0.157469594311240E-03   0.211580E-01   0.835910E+00   0.320520E+03  -0.113114E-16
   LPB:    7   0.232259970148585E+00   0.211224369241297E-03   0.199116E-01   0.675072E+00   0.200387E+03  -0.178756E-16
   LPB:    8   0.232259970571818E+00   0.107114169712203E-03   0.127858E-01   0.963305E+00   0.408994E+03  -0.220893E-16
   LPB:    9   0.232259971319238E+00   0.645285354581523E-04   0.283441E-01   0.796619E+00   0.424819E+03  -0.254206E-16
   LPB:   10   0.232259971841965E+00   0.828984995286192E-04   0.234134E-01   0.846659E+00   0.300192E+03  -0.315815E-16
   LPB:   11   0.232259972202933E+00   0.510603874121535E-04   0.232321E-01   0.695938E+00   0.226359E+03  -0.362770E-16
   LPB:   12   0.232259972411389E+00   0.587499304960046E-04   0.258038E-01   0.519935E+00   0.318054E+03  -0.387800E-16
   LPB:   13   0.232259972537027E+00   0.570601707109491E-04   0.170046E-01   0.914589E+00   0.242022E+03  -0.409265E-16
   LPB:   14   0.232259972635888E+00   0.106441394617634E-03   0.179989E-01   0.743407E+00   0.291280E+03  -0.423380E-16
   LPB:   15   0.232259972692200E+00   0.461180246623440E-04   0.740631E-02   0.138425E+01   0.253568E+03  -0.439982E-16
   LPB:   16   0.232259972828922E+00   0.296646837669124E-04   0.342295E-01   0.525345E+00   0.382828E+03  -0.449681E-16
   LPB:   17   0.232259972890092E+00   0.115465341786302E-04   0.178050E-01   0.860105E+00   0.459453E+03  -0.479405E-16
    LS:    0   0.232259972890238E+00   0.123408856467222E-07   0.246814791113065E-07
 resid(G=0) =  -3.671134229943362E-011
  NLPB:    3   0.232259972890238E+00   0.115480861430709E-04
   LPB:        0.232259972890238E+00   0.115480861430125E-04
   LPB:    0   0.232259972890238E+00   0.115480891815783E-04  -0.442915E-12   0.000000E+00   0.828857E+02  -0.367113E-10
   LPB:    1   0.232259972910378E+00   0.124540507212127E-04   0.175600E-01   0.000000E+00   0.975384E+03   0.731045E-27
   LPB:    2   0.232259972926964E+00   0.110289488139863E-04   0.243563E-01   0.593748E+00   0.119820E+04  -0.782044E-20
   LPB:    3   0.232259972935408E+00   0.404332923499728E-04   0.219551E-01   0.564761E+00   0.310974E+03  -0.315013E-19
   LPB:    4   0.232259972943964E+00   0.153191948643906E-04   0.867997E-02   0.256318E+01   0.357147E+03  -0.174745E-18
   LPB:    5   0.232259972952106E+00   0.136825255886766E-04   0.197168E-01   0.418903E+00   0.345353E+03  -0.329584E-18
   LPB:    6   0.232259972959003E+00   0.901328775021002E-05   0.185110E-01   0.902193E+00   0.447354E+03  -0.638878E-18
   LPB:    7   0.232259972966276E+00   0.912971322683376E-05   0.314503E-01   0.620729E+00   0.172941E+03  -0.960859E-18
   LPB:    8   0.232259972971707E+00   0.671344316667968E-05   0.256986E-01   0.913961E+00   0.226093E+03  -0.148923E-17
   LPB:    9   0.232259972976300E+00   0.143276753254163E-04   0.243958E-01   0.890587E+00   0.230774E+03  -0.188622E-17
   LPB:   10   0.232259972978585E+00   0.117663332202961E-04   0.130483E-01   0.930290E+00   0.228386E+03  -0.229265E-17
   LPB:   11   0.232259972981465E+00   0.407814796271641E-05   0.190872E-01   0.861904E+00   0.274466E+03  -0.252481E-17
   LPB:   12   0.232259972983331E+00   0.571199940188351E-05   0.224000E-01   0.551875E+00   0.219753E+03  -0.281823E-17
   LPB:   13   0.232259972984670E+00   0.322746355892639E-05   0.220935E-01   0.727593E+00   0.129035E+03  -0.304621E-17
   LPB:   14   0.232259972985609E+00   0.446900882071776E-05   0.234310E-01   0.661184E+00   0.298191E+03  -0.329736E-17
   LPB:   15   0.232259972986290E+00   0.546956906040234E-05   0.177713E-01   0.956456E+00   0.163010E+03  -0.351236E-17
   LPB:   16   0.232259972986593E+00   0.646542716461618E-05   0.971922E-02   0.813069E+00   0.269714E+03  -0.373379E-17
   LPB:   17   0.232259972987107E+00   0.221926129924455E-05   0.148497E-01   0.111129E+01   0.334661E+03  -0.383774E-17
   LPB:   18   0.232259972987737E+00   0.810885629864335E-06   0.302299E-01   0.601100E+00   0.216311E+03  -0.402784E-17
    LS:    0   0.232259972987744E+00   0.975059200047923E-10   0.194997949386063E-09
 resid(G=0) =  -7.818190539410352E-013
  NLPB:    4   0.232259972987744E+00   0.810897191978204E-06
  Finished solving NLPB equations
 End minimization
 Ecorr=   1907.21632090266     
 A_corr=  0.443182014577555     
 Ecorr_band=  -1906.77313888808     
 End Solvation calculations
RMM:  44    -0.194769492468E+03   -0.24577E-03   -0.13010E-04 11894   0.920E-03    0.528E-02
deltaQ =   3.168041E-06
 Dsol_rc =      -0.01661103     -0.00950232     -0.76493698
 Dele =       0.00000000      0.00000000      0.70749892
alpha =   6.000000E-01
DIPOLC =       0.00000000      0.00000000     -0.05515437
ZVAL =  -5.515437E-01
deltaQ =   3.168041E-06
 Dsol_rc =      -0.01661103     -0.00950232     -0.76493698
 Dele =       0.00000000      0.00000000      0.70749892
alpha =   6.000000E-01
DIPOLC =       0.00000000      0.00000000     -0.05515437
ZVAL =  -5.515437E-01
deltaQ =   3.168041E-06
 Dsol_rc =      -0.01661103     -0.00950232     -0.76493698
 Dele =       0.00000000      0.00000000      0.70749892
alpha =   6.000000E-01
DIPOLC =       0.00000000      0.00000000     -0.05515437
ZVAL =  -5.515437E-01
deltaQ =   3.168041E-06
 Dsol_rc =      -0.01661103     -0.00950232     -0.76493698
 Dele =       0.00000000      0.00000000      0.70749892
alpha =   6.000000E-01
DIPOLC =       0.00000000      0.00000000     -0.05515437
ZVAL =  -5.515437E-01
deltaQ =   3.168041E-06
 Dsol_rc =      -0.01661103     -0.00950232     -0.76493698
 Dele =       0.00000000      0.00000000      0.70749892
alpha =   6.000000E-01
DIPOLC =       0.00000000      0.00000000     -0.05515437
ZVAL =  -5.515437E-01
deltaQ =   3.168041E-06
 Dsol_rc =      -0.01661103     -0.00950232     -0.76493698
 Dele =       0.00000000      0.00000000      0.70749892
alpha =   6.000000E-01
DIPOLC =       0.00000000      0.00000000     -0.05515437
ZVAL =  -5.515437E-01
deltaQ =   3.168041E-06
 Dsol_rc =      -0.01661103     -0.00950232     -0.76493698
 Dele =       0.00000000      0.00000000      0.70749892
alpha =   6.000000E-01
DIPOLC =       0.00000000      0.00000000     -0.05515437
ZVAL =  -5.515437E-01
deltaQ =   3.168041E-06
deltaQ =   3.168041E-06
 Dsol_rc =      -0.01661103     -0.00950232     -0.76493698
 Dele =       0.00000000      0.00000000      0.70749892
alpha =   6.000000E-01
DIPOLC =       0.00000000      0.00000000     -0.05515437
ZVAL =  -5.515437E-01
deltaQ =   3.168041E-06
 Dsol_rc =      -0.01661103     -0.00950232     -0.76493698
 Dele =       0.00000000      0.00000000      0.70749892
alpha =   6.000000E-01
DIPOLC =       0.00000000      0.00000000     -0.05515437
ZVAL =  -5.515437E-01
deltaQ =   3.168041E-06
 Dsol_rc =      -0.01661103     -0.00950232     -0.76493698
 Dele =       0.00000000      0.00000000      0.70749892
alpha =   6.000000E-01
DIPOLC =       0.00000000      0.00000000     -0.05515437
ZVAL =  -5.515437E-01
deltaQ =   3.168041E-06
 Dsol_rc =      -0.01661103     -0.00950232     -0.76493698
 Dele =       0.00000000      0.00000000      0.70749892
alpha =   6.000000E-01
DIPOLC =       0.00000000      0.00000000     -0.05515437
ZVAL =  -5.515437E-01
deltaQ =   3.168041E-06
 Dsol_rc =      -0.01661103     -0.00950232     -0.76493698
 Dele =       0.00000000      0.00000000      0.70749892
alpha =   6.000000E-01
DIPOLC =       0.00000000      0.00000000     -0.05515437
ZVAL =  -5.515437E-01
deltaQ =   3.168041E-06
 Dsol_rc =      -0.01661103     -0.00950232     -0.76493698
 Dele =       0.00000000      0.00000000      0.70749892
alpha =   6.000000E-01
DIPOLC =       0.00000000      0.00000000     -0.05515437
ZVAL =  -5.515437E-01
deltaQ =   3.168041E-06
 Dsol_rc =      -0.01661103     -0.00950232     -0.76493698
 Dele =       0.00000000      0.00000000      0.70749892
alpha =   6.000000E-01
DIPOLC =       0.00000000      0.00000000     -0.05515437
ZVAL =  -5.515437E-01
deltaQ =   3.168041E-06
 Dsol_rc =      -0.01661103     -0.00950232     -0.76493698
 Dele =       0.00000000      0.00000000      0.70749892
alpha =   6.000000E-01
DIPOLC =       0.00000000      0.00000000     -0.05515437
ZVAL =  -5.515437E-01
 Dsol_rc =      -0.01661103     -0.00950232     -0.76493698
 Dele =       0.00000000      0.00000000      0.70749892
alpha =   6.000000E-01
DIPOLC =       0.00000000      0.00000000     -0.05515437
ZVAL =  -5.515437E-01
 Begin Solvation calculations
  rms_SCF =   1.103682094826673E-004 tol =   1.103682094826673E-005
 Begin minimization
 Creating dielectric and ionic cavities
  area:      239.957121596575     
  volume:    3288.75472211759     
  A_cav:    0.210922309883390     
  qion_max:     4.88537538404350     
  Solving nonlinear dielectric/ionic screening model
  Starting outer loop
        iter                  A_solv                     rms
 resid(G=0) =   1.250509073312533E-005
  NLPB:    0   0.230367697227422E+00   0.817069823770497E-02
   LPB:        0.230367697227422E+00   0.817068866830335E-02
   LPB:    0   0.230367697228365E+00   0.816617034666533E-02   0.150867E-06   0.000000E+00   0.828881E+02   0.125051E-04
   LPB:    1   0.230368574651042E+00   0.104272334819061E-01   0.185970E-01   0.000000E+00   0.679172E+02   0.206249E-21
   LPB:    2   0.230369724788276E+00   0.919545199458927E-02   0.168620E-01   0.144569E+01   0.189907E+03   0.533284E-16
   LPB:    3   0.230377572970817E+00   0.192383566789255E-01   0.981021E-01   0.117287E+01   0.687670E+01  -0.512376E-17
   LPB:    4   0.230386070980011E+00   0.390938143385263E-02   0.196150E-01   0.541549E+01   0.981157E+01  -0.158883E-14
   LPB:    5   0.230387985026331E+00   0.529357602237472E-02   0.179307E-01   0.246392E+00   0.435069E+02  -0.289093E-14
   LPB:    6   0.230388296783009E+00   0.671743846309297E-02   0.867073E-02   0.336826E+00   0.127387E+03  -0.319147E-14
   LPB:    7   0.230388684667979E+00   0.776758172194068E-03   0.113780E-01   0.948153E+00   0.108065E+03  -0.325004E-14
    LS:    0   0.230388685602842E+00   0.209883754200280E-04   0.419748811144691E-04
 resid(G=0) =  -6.973938800058921E-008
  NLPB:    1   0.230388685602842E+00   0.775311479114213E-03
   LPB:        0.230388685602842E+00   0.775311475977679E-03
   LPB:    0   0.230388685602842E+00   0.775271916648424E-03  -0.841387E-09   0.000000E+00   0.828863E+02  -0.697394E-07
   LPB:    1   0.230388804106186E+00   0.213820878960151E-02   0.179752E-01   0.000000E+00   0.112359E+04  -0.279730E-23
   LPB:    2   0.230388843814356E+00   0.230980551847891E-02   0.870030E-02   0.692291E+00   0.333834E+03   0.502266E-17
   LPB:    3   0.230388923159371E+00   0.528038962247292E-03   0.171114E-01   0.101599E+01   0.517478E+03   0.359965E-17
   LPB:    4   0.230388972806984E+00   0.672824921286534E-03   0.267431E-01   0.400361E+00   0.410648E+03  -0.354002E-17
   LPB:    5   0.230388988299771E+00   0.469393628146393E-03   0.164847E-01   0.506245E+00   0.171836E+03  -0.885543E-17
   LPB:    6   0.230389000900779E+00   0.489059766193364E-03   0.272843E-01   0.491411E+00   0.141142E+03  -0.516840E-17
   LPB:    7   0.230389007680425E+00   0.890936180272555E-03   0.143009E-01   0.102648E+01   0.195419E+03  -0.239958E-16
   LPB:    8   0.230389015563074E+00   0.284619541619960E-03   0.167685E-01   0.991596E+00   0.293289E+03  -0.357978E-16
   LPB:    9   0.230389019011038E+00   0.302571006117955E-03   0.194032E-01   0.378017E+00   0.451306E+03  -0.416762E-16
   LPB:   10   0.230389021870441E+00   0.172190731481272E-03   0.192271E-01   0.836897E+00   0.157290E+03  -0.444865E-16
   LPB:   11   0.230389024990738E+00   0.111429558145376E-03   0.281094E-01   0.746422E+00   0.800184E+02  -0.537046E-16
   LPB:   12   0.230389027172551E+00   0.854202055698944E-04   0.325741E-01   0.603393E+00   0.338753E+03  -0.658837E-16
   LPB:   13   0.230389028301475E+00   0.149740575564053E-03   0.311612E-01   0.540885E+00   0.105726E+03  -0.720047E-16
   LPB:   14   0.230389029183701E+00   0.861088592487054E-04   0.169742E-01   0.143463E+01   0.828090E+02  -0.775348E-16
   LPB:   15   0.230389030025818E+00   0.237269169702667E-03   0.261735E-01   0.619043E+00   0.887876E+02  -0.821629E-16
   LPB:   16   0.230389030275085E+00   0.118724630861781E-03   0.632598E-02   0.122469E+01   0.155666E+03  -0.872835E-16
   LPB:   17   0.230389030842419E+00   0.433074829575788E-04   0.284533E-01   0.506022E+00   0.788791E+02  -0.888270E-16
    LS:    0   0.230389030708539E+00   0.345105696658576E-06   0.690479154857981E-06
 resid(G=0) =  -2.674118163015216E-009
  NLPB:    2   0.230389030708539E+00   0.423997084471858E-04
   LPB:        0.230389030708539E+00   0.423997083628584E-04
   LPB:    0   0.230389030708539E+00   0.423965505783829E-04  -0.322625E-10   0.000000E+00   0.828862E+02  -0.267412E-08
   LPB:    1   0.230389030955018E+00   0.588818994621528E-04   0.197934E-01   0.000000E+00   0.470524E+03  -0.122891E-24
   LPB:    2   0.230389031077368E+00   0.151902518830311E-03   0.162468E-01   0.604754E+00   0.259254E+03  -0.105490E-17
   LPB:    3   0.230389031223995E+00   0.530652640971244E-04   0.990127E-02   0.196646E+01   0.235358E+03  -0.171676E-17
   LPB:    4   0.230389031410151E+00   0.378997511523294E-04   0.249682E-01   0.503461E+00   0.164748E+03  -0.254570E-17
   LPB:    5   0.230389031560732E+00   0.531866503357673E-04   0.245571E-01   0.822438E+00   0.897727E+02  -0.372632E-17
   LPB:    6   0.230389031669135E+00   0.472389400447214E-04   0.179302E-01   0.985968E+00   0.728218E+02  -0.482801E-17
   LPB:    7   0.230389031789053E+00   0.885184927537391E-04   0.251005E-01   0.790220E+00   0.451344E+02  -0.593824E-17
   LPB:    8   0.230389031861255E+00   0.400903741278138E-04   0.111564E-01   0.135464E+01   0.675154E+02  -0.709865E-17
   LPB:    9   0.230389031956883E+00   0.209249754462865E-04   0.297773E-01   0.496216E+00   0.435914E+02  -0.786860E-17
   LPB:   10   0.230389032018030E+00   0.254294875825844E-04   0.302923E-01   0.628557E+00   0.349289E+02  -0.886959E-17
   LPB:   11   0.230389032069151E+00   0.231884889351580E-04   0.227250E-01   0.111444E+01   0.379498E+02  -0.102330E-16
   LPB:   12   0.230389032104313E+00   0.236124284481298E-04   0.207394E-01   0.753668E+00   0.477928E+02  -0.113747E-16
   LPB:   13   0.230389032129585E+00   0.110964923087557E-04   0.189916E-01   0.784890E+00   0.515933E+02  -0.122023E-16
   LPB:   14   0.230389032155663E+00   0.264841673224434E-04   0.333766E-01   0.587152E+00   0.424090E+02  -0.128249E-16
   LPB:   15   0.230389032165022E+00   0.389659344396244E-04   0.104068E-01   0.115092E+01   0.827627E+02  -0.135943E-16
   LPB:   16   0.230389032177023E+00   0.920178658905085E-05   0.112447E-01   0.118684E+01   0.673734E+02  -0.138863E-16
   LPB:   17   0.230389032185633E+00   0.548637729240375E-05   0.226386E-01   0.356367E+00   0.729369E+02  -0.142832E-16
   LPB:   18   0.230389032192598E+00   0.698877581112222E-05   0.318215E-01   0.575425E+00   0.561685E+02  -0.146146E-16
   LPB:   19   0.230389032198256E+00   0.515305943351468E-05   0.269694E-01   0.958563E+00   0.167544E+03  -0.150565E-16
   LPB:   20   0.230389032199789E+00   0.400658363525552E-05   0.217931E-01   0.335461E+00   0.699500E+02  -0.152409E-16
    LS:    0   0.230389032199812E+00   0.149127285520301E-08   0.298250114062541E-08
 resid(G=0) =  -4.365674488582272E-012
  NLPB:    3   0.230389032199812E+00   0.400752872951924E-05
  Finished solving NLPB equations
 End minimization
 Ecorr=   1899.16923885331     
 A_corr=  0.441311342083201     
 Ecorr_band=  -1898.72792751123     
 End Solvation calculations
RMM:  45    -0.194769197368E+03    0.29510E-03   -0.58332E-05 11297   0.679E-03    0.258E-02
deltaQ =   3.166917E-06
 Dsol_rc =      -0.01659430     -0.00950396     -0.79680611
 Dele =       0.00000000      0.00000000      0.80598873
alpha =   3.000000E-01
DIPOLC =       0.00000000      0.00000000     -0.03585327
ZVAL =  -3.585327E-01
deltaQ =   3.166917E-06
 Dsol_rc =      -0.01659430     -0.00950396     -0.79680611
 Dele =       0.00000000      0.00000000      0.80598873
alpha =   3.000000E-01
DIPOLC =       0.00000000      0.00000000     -0.03585327
ZVAL =  -3.585327E-01
deltaQ =   3.166917E-06
deltaQ =   3.166917E-06
 Dsol_rc =      -0.01659430     -0.00950396     -0.79680611
 Dele =       0.00000000      0.00000000      0.80598873
alpha =   3.000000E-01
DIPOLC =       0.00000000      0.00000000     -0.03585327
ZVAL =  -3.585327E-01
deltaQ =   3.166917E-06
 Dsol_rc =      -0.01659430     -0.00950396     -0.79680611
 Dele =       0.00000000      0.00000000      0.80598873
alpha =   3.000000E-01
DIPOLC =       0.00000000      0.00000000     -0.03585327
ZVAL =  -3.585327E-01
deltaQ =   3.166917E-06
 Dsol_rc =      -0.01659430     -0.00950396     -0.79680611
 Dele =       0.00000000      0.00000000      0.80598873
alpha =   3.000000E-01
DIPOLC =       0.00000000      0.00000000     -0.03585327
ZVAL =  -3.585327E-01
deltaQ =   3.166917E-06
 Dsol_rc =      -0.01659430     -0.00950396     -0.79680611
 Dele =       0.00000000      0.00000000      0.80598873
alpha =   3.000000E-01
DIPOLC =       0.00000000      0.00000000     -0.03585327
ZVAL =  -3.585327E-01
deltaQ =   3.166917E-06
 Dsol_rc =      -0.01659430     -0.00950396     -0.79680611
 Dele =       0.00000000      0.00000000      0.80598873
alpha =   3.000000E-01
DIPOLC =       0.00000000      0.00000000     -0.03585327
ZVAL =  -3.585327E-01
deltaQ =   3.166917E-06
 Dsol_rc =      -0.01659430     -0.00950396     -0.79680611
 Dele =       0.00000000      0.00000000      0.80598873
alpha =   3.000000E-01
DIPOLC =       0.00000000      0.00000000     -0.03585327
ZVAL =  -3.585327E-01
deltaQ =   3.166917E-06
 Dsol_rc =      -0.01659430     -0.00950396     -0.79680611
 Dele =       0.00000000      0.00000000      0.80598873
alpha =   3.000000E-01
DIPOLC =       0.00000000      0.00000000     -0.03585327
ZVAL =  -3.585327E-01
deltaQ =   3.166917E-06
 Dsol_rc =      -0.01659430     -0.00950396     -0.79680611
 Dele =       0.00000000      0.00000000      0.80598873
alpha =   3.000000E-01
DIPOLC =       0.00000000      0.00000000     -0.03585327
ZVAL =  -3.585327E-01
deltaQ =   3.166917E-06
 Dsol_rc =      -0.01659430     -0.00950396     -0.79680611
 Dele =       0.00000000      0.00000000      0.80598873
alpha =   3.000000E-01
DIPOLC =       0.00000000      0.00000000     -0.03585327
ZVAL =  -3.585327E-01
deltaQ =   3.166917E-06
 Dsol_rc =      -0.01659430     -0.00950396     -0.79680611
 Dele =       0.00000000      0.00000000      0.80598873
alpha =   3.000000E-01
DIPOLC =       0.00000000      0.00000000     -0.03585327
ZVAL =  -3.585327E-01
deltaQ =   3.166917E-06
 Dsol_rc =      -0.01659430     -0.00950396     -0.79680611
 Dele =       0.00000000      0.00000000      0.80598873
alpha =   3.000000E-01
DIPOLC =       0.00000000      0.00000000     -0.03585327
ZVAL =  -3.585327E-01
deltaQ =   3.166917E-06
 Dsol_rc =      -0.01659430     -0.00950396     -0.79680611
 Dele =       0.00000000      0.00000000      0.80598873
alpha =   3.000000E-01
DIPOLC =       0.00000000      0.00000000     -0.03585327
ZVAL =  -3.585327E-01
deltaQ =   3.166917E-06
 Dsol_rc =      -0.01659430     -0.00950396     -0.79680611
 Dele =       0.00000000      0.00000000      0.80598873
alpha =   3.000000E-01
DIPOLC =       0.00000000      0.00000000     -0.03585327
ZVAL =  -3.585327E-01
 Dsol_rc =      -0.01659430     -0.00950396     -0.79680611
 Dele =       0.00000000      0.00000000      0.80598873
alpha =   3.000000E-01
DIPOLC =       0.00000000      0.00000000     -0.03585327
ZVAL =  -3.585327E-01
 Begin Solvation calculations
  rms_SCF =   1.103682094826673E-004 tol =   1.103682094826673E-005
 Begin minimization
 Creating dielectric and ionic cavities
  area:      239.957556679265     
  volume:    3288.69058075979     
  A_cav:    0.210922692321074     
  qion_max:     4.88555521026686     
  Solving nonlinear dielectric/ionic screening model
  Starting outer loop
        iter                  A_solv                     rms
 resid(G=0) =   1.658482963104446E-005
  NLPB:    0   0.225571425396855E+00   0.256674990980080E-01
   LPB:        0.225571425396855E+00   0.256674937399363E-01
   LPB:    0   0.225571425398514E+00   0.256552654422098E-01   0.200084E-06   0.000000E+00   0.828892E+02   0.165848E-04
   LPB:    1   0.225602300262802E+00   0.835396013855113E-01   0.440226E-01   0.000000E+00   0.401629E+02  -0.179696E-21
   LPB:    2   0.225673500458284E+00   0.648141655945196E-01   0.213256E-01   0.476047E+01   0.564652E+02   0.410949E-15
   LPB:    3   0.225994743543281E+00   0.781815982098358E-01   0.611156E-01   0.157435E+01   0.230530E+02  -0.145739E-15
   LPB:    4   0.226088190730167E+00   0.110593865219019E-01   0.124350E-01   0.142967E+01   0.788833E+02  -0.842323E-14
   LPB:    5   0.226104705592698E+00   0.116941640407675E-01   0.178250E-01   0.123290E+00   0.480746E+03  -0.962026E-14
   LPB:    6   0.226108236488520E+00   0.240436949432421E-01   0.119933E-01   0.317760E+00   0.400291E+03  -0.988646E-14
   LPB:    7   0.226111146380857E+00   0.333590470640600E-02   0.800246E-02   0.123512E+01   0.510757E+03  -0.996399E-14
   LPB:    8   0.226112919395006E+00   0.258352251236999E-02   0.258262E-01   0.188799E+00   0.716289E+03  -0.100440E-13
   LPB:    9   0.226113786559138E+00   0.151413432380586E-02   0.289153E-01   0.436838E+00   0.267608E+03  -0.100589E-13
    LS:    0   0.226113807410179E+00   0.542382013323989E-03   0.108472232456490E-02
 resid(G=0) =  -4.926542701705339E-007
  NLPB:    1   0.226113807410179E+00   0.149649649963651E-02
   LPB:        0.226113807410179E+00   0.149649641854436E-02
   LPB:    0   0.226113807410180E+00   0.149575888437128E-02  -0.594388E-08   0.000000E+00   0.828843E+02  -0.492654E-06
   LPB:    1   0.226114097684307E+00   0.147490799471861E-02   0.209249E-01   0.000000E+00   0.264532E+03  -0.230418E-22
   LPB:    2   0.226114314430641E+00   0.179436974201940E-02   0.311768E-01   0.501160E+00   0.477584E+03   0.185349E-17
   LPB:    3   0.226114447271750E+00   0.206733587637535E-02   0.173342E-01   0.110232E+01   0.350431E+03  -0.252572E-16
   LPB:    4   0.226114555180468E+00   0.375221861341765E-02   0.160132E-01   0.879326E+00   0.436519E+03  -0.422605E-16
   LPB:    5   0.226114624260391E+00   0.123526861070981E-02   0.749307E-02   0.136809E+01   0.323831E+03  -0.640564E-16
   LPB:    6   0.226114716332964E+00   0.651623404069850E-03   0.256646E-01   0.389139E+00   0.398559E+03  -0.795105E-16
   LPB:    7   0.226114755679662E+00   0.168476374876742E-02   0.199786E-01   0.548967E+00   0.506441E+03  -0.103389E-15
   LPB:    8   0.226114771384525E+00   0.463474182930633E-03   0.937014E-02   0.851031E+00   0.139040E+03  -0.106584E-15
   LPB:    9   0.226114789701538E+00   0.454505482216665E-03   0.302759E-01   0.360969E+00   0.358978E+03  -0.109931E-15
   LPB:   10   0.226114804527656E+00   0.646306871684007E-03   0.224572E-01   0.109122E+01   0.217784E+03  -0.118069E-15
   LPB:   11   0.226114817905425E+00   0.301405242928022E-03   0.225633E-01   0.898070E+00   0.244780E+03  -0.132625E-15
   LPB:   12   0.226114824587131E+00   0.430663127760044E-03   0.206122E-01   0.546742E+00   0.443894E+03  -0.129349E-15
   LPB:   13   0.226114830380063E+00   0.149645251261062E-03   0.207643E-01   0.860632E+00   0.147583E+03  -0.128171E-15
    LS:    0   0.226114829387056E+00   0.102197687662509E-05   0.204593976846591E-05
 resid(G=0) =  -2.240171048661921E-009
  NLPB:    2   0.226114829387056E+00   0.151218154420224E-03
   LPB:        0.226114829387056E+00   0.151218154403631E-03
   LPB:    0   0.226114829387056E+00   0.151220900857462E-03  -0.270277E-10   0.000000E+00   0.828842E+02  -0.224017E-08
   LPB:    1   0.226114831547985E+00   0.160911334652242E-03   0.165297E-01   0.000000E+00   0.381917E+03  -0.102925E-24
   LPB:    2   0.226114833172814E+00   0.181374926014006E-03   0.241288E-01   0.515106E+00   0.392861E+03   0.106462E-17
   LPB:    3   0.226114834790003E+00   0.415323111019718E-03   0.205403E-01   0.116918E+01   0.528023E+03  -0.181347E-17
   LPB:    4   0.226114835796038E+00   0.239996234289588E-03   0.808781E-02   0.157989E+01   0.347205E+03  -0.512888E-17
   LPB:    5   0.226114837261831E+00   0.159059206374875E-03   0.184731E-01   0.637897E+00   0.488702E+03  -0.706923E-17
   LPB:    6   0.226114838123381E+00   0.118031413189576E-03   0.176264E-01   0.616006E+00   0.234207E+03  -0.100908E-16
   LPB:    7   0.226114838939267E+00   0.264009446206326E-03   0.255116E-01   0.654297E+00   0.346074E+03  -0.136609E-16
   LPB:    8   0.226114839525840E+00   0.994290158006300E-04   0.118340E-01   0.154988E+01   0.315364E+03  -0.170617E-16
   LPB:    9   0.226114840190864E+00   0.541139254427892E-04   0.257958E-01   0.520116E+00   0.934905E+03  -0.207110E-16
   LPB:   10   0.226114840735937E+00   0.645243272285718E-04   0.341834E-01   0.618514E+00   0.273845E+03  -0.248713E-16
   LPB:   11   0.226114841009760E+00   0.807073202437543E-04   0.206849E-01   0.830188E+00   0.392869E+03  -0.299409E-16
   LPB:   12   0.226114841237256E+00   0.357684439161717E-04   0.179917E-01   0.955184E+00   0.576323E+03  -0.324741E-16
   LPB:   13   0.226114841384550E+00   0.336922717742100E-04   0.263945E-01   0.441337E+00   0.421412E+03  -0.348471E-16
   LPB:   14   0.226114841551722E+00   0.508001114904579E-04   0.353068E-01   0.848458E+00   0.245365E+03  -0.367149E-16
   LPB:   15   0.226114841597705E+00   0.876192276185428E-04   0.102747E-01   0.945209E+00   0.329317E+03  -0.398436E-16
   LPB:   16   0.226114841653970E+00   0.234815613990923E-04   0.108564E-01   0.115804E+01   0.408654E+03  -0.407386E-16
   LPB:   17   0.226114841709664E+00   0.143828143592835E-04   0.281614E-01   0.381590E+00   0.453801E+03  -0.422479E-16
    LS:    0   0.226114841709514E+00   0.123224581094483E-07   0.246452164983651E-07
 resid(G=0) =  -1.290255957631103E-010
  NLPB:    3   0.226114841709514E+00   0.143666676292945E-04
   LPB:        0.226114841709514E+00   0.143666676287152E-04
   LPB:    0   0.226114841709514E+00   0.143665008327909E-04  -0.155670E-11   0.000000E+00   0.828842E+02  -0.129026E-09
   LPB:    1   0.226114841729956E+00   0.111572890055532E-04   0.169432E-01   0.000000E+00   0.365975E+03  -0.113494E-26
   LPB:    2   0.226114841743059E+00   0.314071280798608E-04   0.264284E-01   0.410920E+00   0.643432E+03  -0.190748E-18
   LPB:    3   0.226114841748731E+00   0.207646614145582E-04   0.762503E-02   0.150040E+01   0.340381E+03  -0.425943E-18
   LPB:    4   0.226114841760027E+00   0.828949044983966E-05   0.208139E-01   0.729590E+00   0.526863E+03  -0.572296E-18
   LPB:    5   0.226114841768652E+00   0.717961288223053E-05   0.284540E-01   0.558491E+00   0.375230E+03  -0.879330E-18
   LPB:    6   0.226114841777605E+00   0.113893587396248E-04   0.313291E-01   0.942907E+00   0.435538E+03  -0.132663E-17
   LPB:    7   0.226114841783797E+00   0.106026030884260E-04   0.203616E-01   0.106395E+01   0.272621E+03  -0.183181E-17
   LPB:    8   0.226114841789384E+00   0.938807517111841E-05   0.201230E-01   0.913042E+00   0.286861E+03  -0.216049E-17
   LPB:    9   0.226114841792550E+00   0.157129257540883E-04   0.177275E-01   0.643297E+00   0.177730E+03  -0.245585E-17
   LPB:   10   0.226114841795218E+00   0.891289157747020E-05   0.144466E-01   0.103423E+01   0.249972E+03  -0.269497E-17
   LPB:   11   0.226114841797839E+00   0.367720624925977E-05   0.196634E-01   0.721349E+00   0.338142E+03  -0.292042E-17
   LPB:   12   0.226114841799938E+00   0.263000373416912E-05   0.278165E-01   0.566576E+00   0.305145E+03  -0.313325E-17
   LPB:   13   0.226114841801412E+00   0.346790839022290E-05   0.306440E-01   0.636972E+00   0.250958E+03  -0.336441E-17
   LPB:   14   0.226114841802158E+00   0.813945338870339E-05   0.182285E-01   0.850713E+00   0.320567E+03  -0.359075E-17
   LPB:   15   0.226114841802609E+00   0.562474377084520E-05   0.839857E-02   0.131457E+01   0.289474E+03  -0.371164E-17
   LPB:   16   0.226114841803025E+00   0.209082996318371E-05   0.122487E-01   0.630465E+00   0.366689E+03  -0.378463E-17
   LPB:   17   0.226114841803477E+00   0.180510750474836E-05   0.271996E-01   0.490709E+00   0.383006E+03  -0.386109E-17
   LPB:   18   0.226114841804047E+00   0.184122045896293E-05   0.309915E-01   0.110426E+01   0.281370E+03  -0.395003E-17
   LPB:   19   0.226114841804359E+00   0.119203935030398E-05   0.210121E-01   0.809500E+00   0.249137E+03  -0.405627E-17
    LS:    0   0.226114841804353E+00   0.948393585886720E-10   0.189690730673696E-09
 resid(G=0) =  -4.839462164341057E-013
  NLPB:    4   0.226114841804353E+00   0.119212427719940E-05
  Finished solving NLPB equations
 End minimization
 Ecorr=   1883.54645032519     
 A_corr=  0.437037534125427     
 Ecorr_band=  -1883.10941279106     
 End Solvation calculations
RMM:  46    -0.194769651414E+03   -0.45405E-03   -0.85049E-05 11275   0.709E-03    0.356E-02
deltaQ =   3.167754E-06
 Dsol_rc =      -0.01662977     -0.00949581     -0.87719717
 Dele =       0.00000000      0.00000000      0.83675805
alpha =   6.000000E-01
DIPOLC =       0.00000000      0.00000000     -0.03860478
ZVAL =  -3.860478E-01
deltaQ =   3.167754E-06
 Dsol_rc =      -0.01662977     -0.00949581     -0.87719717
 Dele =       0.00000000      0.00000000      0.83675805
alpha =   6.000000E-01
DIPOLC =       0.00000000      0.00000000     -0.03860478
ZVAL =  -3.860478E-01
deltaQ =   3.167754E-06
deltaQ =   3.167754E-06
 Dsol_rc =      -0.01662977     -0.00949581     -0.87719717
 Dele =       0.00000000      0.00000000      0.83675805
alpha =   6.000000E-01
DIPOLC =       0.00000000      0.00000000     -0.03860478
ZVAL =  -3.860478E-01
deltaQ =   3.167754E-06
 Dsol_rc =      -0.01662977     -0.00949581     -0.87719717
 Dele =       0.00000000      0.00000000      0.83675805
alpha =   6.000000E-01
DIPOLC =       0.00000000      0.00000000     -0.03860478
ZVAL =  -3.860478E-01
deltaQ =   3.167754E-06
 Dsol_rc =      -0.01662977     -0.00949581     -0.87719717
 Dele =       0.00000000      0.00000000      0.83675805
alpha =   6.000000E-01
DIPOLC =       0.00000000      0.00000000     -0.03860478
ZVAL =  -3.860478E-01
deltaQ =   3.167754E-06
 Dsol_rc =      -0.01662977     -0.00949581     -0.87719717
 Dele =       0.00000000      0.00000000      0.83675805
alpha =   6.000000E-01
DIPOLC =       0.00000000      0.00000000     -0.03860478
ZVAL =  -3.860478E-01
deltaQ =   3.167754E-06
 Dsol_rc =      -0.01662977     -0.00949581     -0.87719717
 Dele =       0.00000000      0.00000000      0.83675805
alpha =   6.000000E-01
DIPOLC =       0.00000000      0.00000000     -0.03860478
ZVAL =  -3.860478E-01
deltaQ =   3.167754E-06
 Dsol_rc =      -0.01662977     -0.00949581     -0.87719717
 Dele =       0.00000000      0.00000000      0.83675805
alpha =   6.000000E-01
DIPOLC =       0.00000000      0.00000000     -0.03860478
ZVAL =  -3.860478E-01
deltaQ =   3.167754E-06
 Dsol_rc =      -0.01662977     -0.00949581     -0.87719717
 Dele =       0.00000000      0.00000000      0.83675805
alpha =   6.000000E-01
DIPOLC =       0.00000000      0.00000000     -0.03860478
ZVAL =  -3.860478E-01
deltaQ =   3.167754E-06
 Dsol_rc =      -0.01662977     -0.00949581     -0.87719717
 Dele =       0.00000000      0.00000000      0.83675805
alpha =   6.000000E-01
DIPOLC =       0.00000000      0.00000000     -0.03860478
ZVAL =  -3.860478E-01
deltaQ =   3.167754E-06
 Dsol_rc =      -0.01662977     -0.00949581     -0.87719717
 Dele =       0.00000000      0.00000000      0.83675805
alpha =   6.000000E-01
DIPOLC =       0.00000000      0.00000000     -0.03860478
ZVAL =  -3.860478E-01
deltaQ =   3.167754E-06
 Dsol_rc =      -0.01662977     -0.00949581     -0.87719717
 Dele =       0.00000000      0.00000000      0.83675805
alpha =   6.000000E-01
DIPOLC =       0.00000000      0.00000000     -0.03860478
ZVAL =  -3.860478E-01
deltaQ =   3.167754E-06
 Dsol_rc =      -0.01662977     -0.00949581     -0.87719717
 Dele =       0.00000000      0.00000000      0.83675805
alpha =   6.000000E-01
DIPOLC =       0.00000000      0.00000000     -0.03860478
ZVAL =  -3.860478E-01
deltaQ =   3.167754E-06
 Dsol_rc =      -0.01662977     -0.00949581     -0.87719717
 Dele =       0.00000000      0.00000000      0.83675805
alpha =   6.000000E-01
DIPOLC =       0.00000000      0.00000000     -0.03860478
ZVAL =  -3.860478E-01
deltaQ =   3.167754E-06
 Dsol_rc =      -0.01662977     -0.00949581     -0.87719717
 Dele =       0.00000000      0.00000000      0.83675805
alpha =   6.000000E-01
DIPOLC =       0.00000000      0.00000000     -0.03860478
ZVAL =  -3.860478E-01
 Dsol_rc =      -0.01662977     -0.00949581     -0.87719717
 Dele =       0.00000000      0.00000000      0.83675805
alpha =   6.000000E-01
DIPOLC =       0.00000000      0.00000000     -0.03860478
ZVAL =  -3.860478E-01
 Begin Solvation calculations
  rms_SCF =   1.103682094826673E-004 tol =   1.103682094826673E-005
 Begin minimization
 Creating dielectric and ionic cavities
  area:      239.957778141847     
  volume:    3288.65607670122     
  A_cav:    0.210922886986683     
  qion_max:     4.88565203397112     
  Solving nonlinear dielectric/ionic screening model
  Starting outer loop
        iter                  A_solv                     rms
 resid(G=0) =   9.387309938477251E-006
  NLPB:    0   0.224649688395846E+00   0.550458721410402E-02
   LPB:        0.224649688395846E+00   0.550457920972072E-02
   LPB:    0   0.224649688396378E+00   0.550072859331964E-02   0.113256E-06   0.000000E+00   0.828858E+02   0.938731E-05
   LPB:    1   0.224650246609046E+00   0.898941572505898E-02   0.214421E-01   0.000000E+00   0.699349E+02   0.429974E-21
   LPB:    2   0.224651049173864E+00   0.790650181292726E-02   0.176499E-01   0.174665E+01   0.212368E+03   0.335888E-16
   LPB:    3   0.224656588340444E+00   0.155862871924713E-01   0.925165E-01   0.131670E+01   0.758296E+01  -0.454798E-16
   LPB:    4   0.224661521318938E+00   0.385411055388162E-02   0.178946E-01   0.460428E+01   0.134546E+02  -0.134957E-14
   LPB:    5   0.224662441659165E+00   0.804919352763231E-02   0.148874E-01   0.224255E+00   0.654499E+02  -0.218790E-14
   LPB:    6   0.224662674911932E+00   0.241881817201984E-02   0.562024E-02   0.671339E+00   0.138640E+03  -0.235137E-14
   LPB:    7   0.224662917055214E+00   0.453619565578872E-03   0.199967E-01   0.291771E+00   0.126006E+03  -0.239742E-14
    LS:    0   0.224662917630870E+00   0.132292350233099E-04   0.264573187350937E-04
 resid(G=0) =  -3.459516124959539E-008
  NLPB:    1   0.224662917630870E+00   0.452452990365924E-03
   LPB:        0.224662917630870E+00   0.452452989043327E-03
   LPB:    0   0.224662917630870E+00   0.452424430521533E-03  -0.417390E-09   0.000000E+00   0.828844E+02  -0.345952E-07
   LPB:    1   0.224662981722410E+00   0.756883155284639E-03   0.193560E-01   0.000000E+00   0.138519E+04   0.207403E-23
   LPB:    2   0.224663012822206E+00   0.237728964423684E-02   0.190279E-01   0.493607E+00   0.413912E+03   0.578570E-17
   LPB:    3   0.224663039400127E+00   0.571731884835204E-03   0.785743E-02   0.206954E+01   0.379716E+03   0.426218E-17
   LPB:    4   0.224663063744711E+00   0.525151840713623E-03   0.237481E-01   0.303063E+00   0.376222E+03   0.183510E-17
   LPB:    5   0.224663071902406E+00   0.319159981150836E-03   0.151573E-01   0.525016E+00   0.210850E+03   0.112711E-17
   LPB:    6   0.224663078007326E+00   0.351042709556573E-03   0.246658E-01   0.459872E+00   0.199826E+03   0.541284E-17
   LPB:    7   0.224663082159313E+00   0.580327674206963E-03   0.162103E-01   0.103486E+01   0.139872E+03   0.279440E-17
   LPB:    8   0.224663085671667E+00   0.385365951204728E-03   0.159826E-01   0.857998E+00   0.274586E+03  -0.175360E-17
   LPB:    9   0.224663087566007E+00   0.169307441110511E-03   0.126436E-01   0.681764E+00   0.276197E+03   0.200044E-17
   LPB:   10   0.224663089392566E+00   0.813703028035315E-04   0.284585E-01   0.428386E+00   0.186723E+03   0.249421E-17
   LPB:   11   0.224663091019424E+00   0.769505097293185E-04   0.324549E-01   0.780993E+00   0.822061E+02  -0.245819E-17
   LPB:   12   0.224663092067428E+00   0.737929958026607E-04   0.314102E-01   0.665614E+00   0.394330E+03  -0.840392E-17
   LPB:   13   0.224663092513396E+00   0.102469795340695E-03   0.216028E-01   0.618731E+00   0.178861E+03  -0.104191E-16
   LPB:   14   0.224663093055613E+00   0.406199722442881E-04   0.218982E-01   0.119942E+01   0.795888E+02  -0.121782E-16
    LS:    0   0.224663092976295E+00   0.175345425679208E-06   0.350849486926773E-06
 resid(G=0) =  -1.234951113593397E-009
  NLPB:    2   0.224663092976295E+00   0.407047809513335E-04
   LPB:        0.224663092976295E+00   0.407047809325998E-04
   LPB:    0   0.224663092976295E+00   0.407052164303106E-04  -0.148997E-10   0.000000E+00   0.828844E+02  -0.123495E-08
   LPB:    1   0.224663093224359E+00   0.753316988474721E-04   0.179478E-01   0.000000E+00   0.794317E+03   0.909455E-25
   LPB:    2   0.224663093329590E+00   0.114056268823723E-03   0.121451E-01   0.626889E+00   0.383834E+03  -0.376644E-18
   LPB:    3   0.224663093440439E+00   0.857681867954865E-04   0.111013E-01   0.115243E+01   0.218677E+03  -0.874313E-18
   LPB:    4   0.224663093629266E+00   0.290429384283536E-04   0.195021E-01   0.969674E+00   0.109894E+03  -0.163391E-17
   LPB:    5   0.224663093838854E+00   0.333452344522635E-04   0.360964E-01   0.599678E+00   0.137358E+03  -0.318823E-17
   LPB:    6   0.224663093968300E+00   0.473401663114999E-04   0.269654E-01   0.826762E+00   0.756353E+02  -0.556290E-17
   LPB:    7   0.224663094055934E+00   0.878400714929902E-04   0.204558E-01   0.892429E+00   0.477011E+02  -0.758349E-17
   LPB:    8   0.224663094150148E+00   0.534260592368507E-04   0.147543E-01   0.149053E+01   0.452028E+02  -0.908057E-17
   LPB:    9   0.224663094236945E+00   0.299754611350274E-04   0.218937E-01   0.620851E+00   0.828120E+02  -0.108139E-16
   LPB:   10   0.224663094290600E+00   0.299442451487057E-04   0.215590E-01   0.627767E+00   0.554420E+02  -0.118273E-16
   LPB:   11   0.224663094337085E+00   0.247191151850234E-04   0.213207E-01   0.876035E+00   0.525705E+02  -0.129625E-16
   LPB:   12   0.224663094386772E+00   0.191633258581722E-04   0.257844E-01   0.883864E+00   0.475374E+02  -0.139687E-16
   LPB:   13   0.224663094414783E+00   0.210072325059410E-04   0.223113E-01   0.651495E+00   0.399518E+02  -0.150663E-16
   LPB:   14   0.224663094428822E+00   0.379909738271410E-04   0.169717E-01   0.658887E+00   0.149954E+03  -0.161076E-16
   LPB:   15   0.224663094436791E+00   0.228819597055171E-04   0.788062E-02   0.122248E+01   0.155435E+03  -0.161872E-16
   LPB:   16   0.224663094454136E+00   0.629818775722438E-05   0.255510E-01   0.671282E+00   0.423597E+02  -0.162611E-16
   LPB:   17   0.224663094461457E+00   0.307386268427787E-05   0.221738E-01   0.486381E+00   0.103962E+03  -0.169431E-16
    LS:    0   0.224663094461439E+00   0.148514345266193E-08   0.297032361191421E-08
 resid(G=0) =  -2.504302321071350E-012
  NLPB:    3   0.224663094461439E+00   0.307433625879085E-05
  Finished solving NLPB equations
 End minimization
 Ecorr=   1877.88829736695     
 A_corr=  0.435585981448122     
 Ecorr_band=  -1877.45271138550     
 End Solvation calculations
RMM:  47    -0.194769448999E+03    0.20242E-03   -0.47149E-05 11192   0.631E-03    0.105E-02
deltaQ =   3.166863E-06
 Dsol_rc =      -0.01654188     -0.00949702     -0.89919549
 Dele =       0.00000000      0.00000000      0.85915510
alpha =   6.000000E-01
DIPOLC =       0.00000000      0.00000000     -0.03946615
ZVAL =  -3.946615E-01
deltaQ =   3.166863E-06
 Dsol_rc =      -0.01654188     -0.00949702     -0.89919549
 Dele =       0.00000000      0.00000000      0.85915510
alpha =   6.000000E-01
DIPOLC =       0.00000000      0.00000000     -0.03946615
ZVAL =  -3.946615E-01
deltaQ =   3.166863E-06
 Dsol_rc =      -0.01654188     -0.00949702     -0.89919549
 Dele =       0.00000000      0.00000000      0.85915510
alpha =   6.000000E-01
DIPOLC =       0.00000000      0.00000000     -0.03946615
ZVAL =  -3.946615E-01
deltaQ =   3.166863E-06
 Dsol_rc =      -0.01654188     -0.00949702     -0.89919549
 Dele =       0.00000000      0.00000000      0.85915510
alpha =   6.000000E-01
DIPOLC =       0.00000000      0.00000000     -0.03946615
ZVAL =  -3.946615E-01
deltaQ =   3.166863E-06
 Dsol_rc =      -0.01654188     -0.00949702     -0.89919549
 Dele =       0.00000000      0.00000000      0.85915510
alpha =   6.000000E-01
DIPOLC =       0.00000000      0.00000000     -0.03946615
ZVAL =  -3.946615E-01
deltaQ =   3.166863E-06
 Dsol_rc =      -0.01654188     -0.00949702     -0.89919549
 Dele =       0.00000000      0.00000000      0.85915510
alpha =   6.000000E-01
DIPOLC =       0.00000000      0.00000000     -0.03946615
ZVAL =  -3.946615E-01
deltaQ =   3.166863E-06
 Dsol_rc =      -0.01654188     -0.00949702     -0.89919549
 Dele =       0.00000000      0.00000000      0.85915510
alpha =   6.000000E-01
DIPOLC =       0.00000000      0.00000000     -0.03946615
ZVAL =  -3.946615E-01
deltaQ =   3.166863E-06
deltaQ =   3.166863E-06
 Dsol_rc =      -0.01654188     -0.00949702     -0.89919549
 Dele =       0.00000000      0.00000000      0.85915510
alpha =   6.000000E-01
DIPOLC =       0.00000000      0.00000000     -0.03946615
ZVAL =  -3.946615E-01
deltaQ =   3.166863E-06
 Dsol_rc =      -0.01654188     -0.00949702     -0.89919549
 Dele =       0.00000000      0.00000000      0.85915510
alpha =   6.000000E-01
DIPOLC =       0.00000000      0.00000000     -0.03946615
ZVAL =  -3.946615E-01
deltaQ =   3.166863E-06
 Dsol_rc =      -0.01654188     -0.00949702     -0.89919549
 Dele =       0.00000000      0.00000000      0.85915510
alpha =   6.000000E-01
DIPOLC =       0.00000000      0.00000000     -0.03946615
ZVAL =  -3.946615E-01
deltaQ =   3.166863E-06
 Dsol_rc =      -0.01654188     -0.00949702     -0.89919549
 Dele =       0.00000000      0.00000000      0.85915510
alpha =   6.000000E-01
DIPOLC =       0.00000000      0.00000000     -0.03946615
ZVAL =  -3.946615E-01
deltaQ =   3.166863E-06
 Dsol_rc =      -0.01654188     -0.00949702     -0.89919549
 Dele =       0.00000000      0.00000000      0.85915510
alpha =   6.000000E-01
DIPOLC =       0.00000000      0.00000000     -0.03946615
ZVAL =  -3.946615E-01
deltaQ =   3.166863E-06
 Dsol_rc =      -0.01654188     -0.00949702     -0.89919549
 Dele =       0.00000000      0.00000000      0.85915510
alpha =   6.000000E-01
DIPOLC =       0.00000000      0.00000000     -0.03946615
ZVAL =  -3.946615E-01
deltaQ =   3.166863E-06
 Dsol_rc =      -0.01654188     -0.00949702     -0.89919549
 Dele =       0.00000000      0.00000000      0.85915510
alpha =   6.000000E-01
DIPOLC =       0.00000000      0.00000000     -0.03946615
ZVAL =  -3.946615E-01
deltaQ =   3.166863E-06
 Dsol_rc =      -0.01654188     -0.00949702     -0.89919549
 Dele =       0.00000000      0.00000000      0.85915510
alpha =   6.000000E-01
DIPOLC =       0.00000000      0.00000000     -0.03946615
ZVAL =  -3.946615E-01
 Dsol_rc =      -0.01654188     -0.00949702     -0.89919549
 Dele =       0.00000000      0.00000000      0.85915510
alpha =   6.000000E-01
DIPOLC =       0.00000000      0.00000000     -0.03946615
ZVAL =  -3.946615E-01
 Begin Solvation calculations
  rms_SCF =   1.103682094826673E-004 tol =   1.103682094826673E-005
 Begin minimization
 Creating dielectric and ionic cavities
  area:      239.957894893327     
  volume:    3288.63937471297     
  A_cav:    0.210922989611234     
  qion_max:     4.88569869444143     
  Solving nonlinear dielectric/ionic screening model
  Starting outer loop
        iter                  A_solv                     rms
 resid(G=0) =   4.585859589456565E-006
  NLPB:    0   0.223667652100712E+00   0.433181063306384E-02
   LPB:        0.223667652100712E+00   0.433180820565924E-02
   LPB:    0   0.223667652100839E+00   0.432891140412064E-02   0.553279E-07   0.000000E+00   0.828851E+02   0.458586E-05
   LPB:    1   0.223667767957073E+00   0.262344404732456E-02   0.138203E-01   0.000000E+00   0.529546E+02   0.100637E-22
   LPB:    2   0.223667850734021E+00   0.197336650388741E-02   0.125230E-01   0.788495E+00   0.147732E+03   0.234665E-16
   LPB:    3   0.223668238703010E+00   0.442601646379193E-02   0.896056E-01   0.655028E+00   0.129602E+02   0.308895E-16
   LPB:    4   0.223668996700628E+00   0.180214899517916E-02   0.288690E-01   0.606421E+01   0.116486E+02  -0.567667E-16
   LPB:    5   0.223669306971872E+00   0.464202131453792E-02   0.187533E-01   0.630127E+00   0.278963E+02  -0.149597E-15
   LPB:    6   0.223669398952142E+00   0.197970879970727E-02   0.617843E-02   0.899813E+00   0.685224E+02  -0.192500E-15
   LPB:    7   0.223669522600681E+00   0.395246542896574E-03   0.197846E-01   0.419802E+00   0.470775E+02  -0.209664E-15
    LS:    0   0.223669522981101E+00   0.187088038938743E-05   0.374099993827685E-05
 resid(G=0) =  -1.757929725398899E-008
  NLPB:    1   0.223669522981101E+00   0.394348471351500E-03
   LPB:        0.223669522981101E+00   0.394348470959674E-03
   LPB:    0   0.223669522981101E+00   0.394328890032733E-03  -0.212095E-09   0.000000E+00   0.828841E+02  -0.175793E-07
   LPB:    1   0.223669560031558E+00   0.658018120806335E-03   0.192444E-01   0.000000E+00   0.903120E+03  -0.492890E-24
   LPB:    2   0.223669576584082E+00   0.180638011141821E-02   0.162839E-01   0.527980E+00   0.415973E+03   0.420969E-17
   LPB:    3   0.223669594821103E+00   0.430732248325725E-03   0.909021E-02   0.197366E+01   0.473659E+03   0.268432E-17
   LPB:    4   0.223669611075649E+00   0.417843670615447E-03   0.253971E-01   0.319015E+00   0.281792E+03  -0.208101E-19
   LPB:    5   0.223669616891964E+00   0.273899174873306E-03   0.153859E-01   0.590654E+00   0.324394E+03  -0.941300E-17
   LPB:    6   0.223669621091031E+00   0.310812109348506E-03   0.248935E-01   0.446213E+00   0.147406E+03  -0.987060E-17
   LPB:    7   0.223669624063777E+00   0.537398323713005E-03   0.159840E-01   0.110257E+01   0.107624E+03  -0.179099E-16
   LPB:    8   0.223669627113872E+00   0.335639034370815E-03   0.177450E-01   0.924198E+00   0.127605E+03  -0.251177E-16
   LPB:    9   0.223669628869252E+00   0.164615292963286E-03   0.131083E-01   0.779089E+00   0.324689E+03  -0.261257E-16
   LPB:   10   0.223669630644720E+00   0.813870357312293E-04   0.294985E-01   0.449458E+00   0.953747E+02  -0.278218E-16
   LPB:   11   0.223669632407082E+00   0.991406298197434E-04   0.352881E-01   0.829763E+00   0.441087E+02  -0.335557E-16
   LPB:   12   0.223669633775063E+00   0.108972708383385E-03   0.328879E-01   0.832870E+00   0.958979E+02  -0.416027E-16
   LPB:   13   0.223669634329599E+00   0.180945607741462E-03   0.172325E-01   0.773638E+00   0.855851E+02  -0.490838E-16
   LPB:   14   0.223669634835261E+00   0.269570187246512E-03   0.134388E-01   0.116928E+01   0.557425E+02  -0.529206E-16
   LPB:   15   0.223669635355992E+00   0.769625105545873E-04   0.985258E-02   0.140464E+01   0.497357E+02  -0.571345E-16
   LPB:   16   0.223669636020017E+00   0.536605512672356E-04   0.298667E-01   0.420661E+00   0.510991E+02  -0.616275E-16
   LPB:   17   0.223669636368241E+00   0.496364156418300E-04   0.259669E-01   0.603172E+00   0.585117E+02  -0.680817E-16
   LPB:   18   0.223669636666034E+00   0.305296713170079E-04   0.260328E-01   0.853014E+00   0.409439E+02  -0.714757E-16
    LS:    0   0.223669636621139E+00   0.113640037213703E-06   0.227369864852509E-06
 resid(G=0) =  -7.141220115247648E-010
  NLPB:    2   0.223669636621139E+00   0.304237601964964E-04
   LPB:        0.223669636621139E+00   0.304237601881152E-04
   LPB:    0   0.223669636621139E+00   0.304235969902873E-04  -0.861591E-11   0.000000E+00   0.828841E+02  -0.714122E-09
   LPB:    1   0.223669636765562E+00   0.299384996322120E-04   0.191926E-01   0.000000E+00   0.846894E+03   0.521031E-25
   LPB:    2   0.223669636870744E+00   0.305174099820497E-04   0.265443E-01   0.526584E+00   0.443580E+03  -0.464493E-19
   LPB:    3   0.223669636987036E+00   0.267523193370314E-04   0.333229E-01   0.880716E+00   0.164181E+03  -0.557047E-18
   LPB:    4   0.223669637059233E+00   0.839764211781750E-04   0.230971E-01   0.895688E+00   0.155599E+03  -0.120715E-17
   LPB:    5   0.223669637100824E+00   0.520859146924527E-04   0.801092E-02   0.166092E+01   0.204011E+03  -0.181443E-17
   LPB:    6   0.223669637139830E+00   0.402601751390296E-04   0.132280E-01   0.567982E+00   0.157703E+03  -0.223266E-17
   LPB:    7   0.223669637184850E+00   0.388048953829687E-04   0.199458E-01   0.765425E+00   0.634932E+02  -0.278226E-17
   LPB:    8   0.223669637213004E+00   0.415020193517053E-04   0.135958E-01   0.917476E+00   0.116301E+03  -0.375400E-17
   LPB:    9   0.223669637244477E+00   0.153722032069165E-04   0.193722E-01   0.784520E+00   0.629355E+02  -0.449098E-17
   LPB:   10   0.223669637265558E+00   0.129427788936174E-04   0.221355E-01   0.586226E+00   0.865950E+02  -0.527974E-17
   LPB:   11   0.223669637285129E+00   0.771147925304963E-05   0.303486E-01   0.677101E+00   0.453901E+02  -0.588981E-17
   LPB:   12   0.223669637302257E+00   0.131188115714410E-04   0.316893E-01   0.838170E+00   0.472121E+02  -0.670238E-17
   LPB:   13   0.223669637310999E+00   0.135867081843631E-04   0.221494E-01   0.730186E+00   0.484638E+02  -0.745213E-17
   LPB:   14   0.223669637318046E+00   0.920090200644283E-05   0.185983E-01   0.960155E+00   0.557546E+02  -0.788932E-17
   LPB:   15   0.223669637326855E+00   0.110504735557920E-04   0.327069E-01   0.710709E+00   0.453515E+02  -0.829389E-17
   LPB:   16   0.223669637330960E+00   0.255302749388821E-04   0.173851E-01   0.876884E+00   0.363954E+02  -0.886540E-17
   LPB:   17   0.223669637334061E+00   0.927660837610102E-05   0.763127E-02   0.172019E+01   0.489551E+02  -0.928734E-17
   LPB:   18   0.223669637336953E+00   0.615201745120496E-05   0.215901E-01   0.329754E+00   0.132607E+03  -0.959703E-17
   LPB:   19   0.223669637340348E+00   0.368898910501226E-05   0.308577E-01   0.821437E+00   0.476415E+02  -0.984105E-17
   LPB:   20   0.223669637342778E+00   0.233620927099989E-05   0.237692E-01   0.928956E+00   0.571276E+02  -0.103761E-16
    LS:    0   0.223669637342697E+00   0.721558063299099E-09   0.144327868840285E-08
 resid(G=0) =  -2.468553139678420E-012
  NLPB:    3   0.223669637342697E+00   0.233531195487045E-05
  Finished solving NLPB equations
 End minimization
 Ecorr=   1874.26926591949     
 A_corr=  0.434592626953931     
 Ecorr_band=  -1873.83467329254     
 End Solvation calculations
RMM:  48    -0.194769385357E+03    0.63642E-04   -0.61299E-06  8309   0.233E-03    0.409E-03
deltaQ =   3.167448E-06
 Dsol_rc =      -0.01657437     -0.00949620     -0.91486219
 Dele =       0.00000000      0.00000000      0.86652033
alpha =   6.000000E-01
DIPOLC =       0.00000000      0.00000000     -0.04479157
ZVAL =  -4.479157E-01
deltaQ =   3.167448E-06
 Dsol_rc =      -0.01657437     -0.00949620     -0.91486219
 Dele =       0.00000000      0.00000000      0.86652033
alpha =   6.000000E-01
DIPOLC =       0.00000000      0.00000000     -0.04479157
ZVAL =  -4.479157E-01
deltaQ =   3.167448E-06
deltaQ =   3.167448E-06
 Dsol_rc =      -0.01657437     -0.00949620     -0.91486219
 Dele =       0.00000000      0.00000000      0.86652033
alpha =   6.000000E-01
DIPOLC =       0.00000000      0.00000000     -0.04479157
ZVAL =  -4.479157E-01
deltaQ =   3.167448E-06
 Dsol_rc =      -0.01657437     -0.00949620     -0.91486219
 Dele =       0.00000000      0.00000000      0.86652033
alpha =   6.000000E-01
DIPOLC =       0.00000000      0.00000000     -0.04479157
ZVAL =  -4.479157E-01
deltaQ =   3.167448E-06
 Dsol_rc =      -0.01657437     -0.00949620     -0.91486219
 Dele =       0.00000000      0.00000000      0.86652033
alpha =   6.000000E-01
DIPOLC =       0.00000000      0.00000000     -0.04479157
ZVAL =  -4.479157E-01
deltaQ =   3.167448E-06
 Dsol_rc =      -0.01657437     -0.00949620     -0.91486219
 Dele =       0.00000000      0.00000000      0.86652033
alpha =   6.000000E-01
DIPOLC =       0.00000000      0.00000000     -0.04479157
ZVAL =  -4.479157E-01
deltaQ =   3.167448E-06
 Dsol_rc =      -0.01657437     -0.00949620     -0.91486219
 Dele =       0.00000000      0.00000000      0.86652033
alpha =   6.000000E-01
DIPOLC =       0.00000000      0.00000000     -0.04479157
ZVAL =  -4.479157E-01
deltaQ =   3.167448E-06
 Dsol_rc =      -0.01657437     -0.00949620     -0.91486219
 Dele =       0.00000000      0.00000000      0.86652033
alpha =   6.000000E-01
DIPOLC =       0.00000000      0.00000000     -0.04479157
ZVAL =  -4.479157E-01
deltaQ =   3.167448E-06
 Dsol_rc =      -0.01657437     -0.00949620     -0.91486219
 Dele =       0.00000000      0.00000000      0.86652033
alpha =   6.000000E-01
DIPOLC =       0.00000000      0.00000000     -0.04479157
ZVAL =  -4.479157E-01
deltaQ =   3.167448E-06
 Dsol_rc =      -0.01657437     -0.00949620     -0.91486219
 Dele =       0.00000000      0.00000000      0.86652033
alpha =   6.000000E-01
DIPOLC =       0.00000000      0.00000000     -0.04479157
ZVAL =  -4.479157E-01
deltaQ =   3.167448E-06
 Dsol_rc =      -0.01657437     -0.00949620     -0.91486219
 Dele =       0.00000000      0.00000000      0.86652033
alpha =   6.000000E-01
DIPOLC =       0.00000000      0.00000000     -0.04479157
ZVAL =  -4.479157E-01
deltaQ =   3.167448E-06
 Dsol_rc =      -0.01657437     -0.00949620     -0.91486219
 Dele =       0.00000000      0.00000000      0.86652033
alpha =   6.000000E-01
DIPOLC =       0.00000000      0.00000000     -0.04479157
ZVAL =  -4.479157E-01
deltaQ =   3.167448E-06
 Dsol_rc =      -0.01657437     -0.00949620     -0.91486219
 Dele =       0.00000000      0.00000000      0.86652033
alpha =   6.000000E-01
DIPOLC =       0.00000000      0.00000000     -0.04479157
ZVAL =  -4.479157E-01
deltaQ =   3.167448E-06
 Dsol_rc =      -0.01657437     -0.00949620     -0.91486219
 Dele =       0.00000000      0.00000000      0.86652033
alpha =   6.000000E-01
DIPOLC =       0.00000000      0.00000000     -0.04479157
ZVAL =  -4.479157E-01
deltaQ =   3.167448E-06
 Dsol_rc =      -0.01657437     -0.00949620     -0.91486219
 Dele =       0.00000000      0.00000000      0.86652033
alpha =   6.000000E-01
DIPOLC =       0.00000000      0.00000000     -0.04479157
ZVAL =  -4.479157E-01
 Dsol_rc =      -0.01657437     -0.00949620     -0.91486219
 Dele =       0.00000000      0.00000000      0.86652033
alpha =   6.000000E-01
DIPOLC =       0.00000000      0.00000000     -0.04479157
ZVAL =  -4.479157E-01
 Begin Solvation calculations
  rms_SCF =   1.103682094826673E-004 tol =   1.103682094826673E-005
 Begin minimization
 Creating dielectric and ionic cavities
  area:      239.957925313570     
  volume:    3288.63391687828     
  A_cav:    0.210923016350628     
  qion_max:     4.88571377012679     
  Solving nonlinear dielectric/ionic screening model
  Starting outer loop
        iter                  A_solv                     rms
 resid(G=0) =   1.496390419714055E-006
  NLPB:    0   0.223519993556440E+00   0.170012253391846E-02
   LPB:        0.223519993556440E+00   0.170012187538219E-02
   LPB:    0   0.223519993556454E+00   0.170050396704019E-02   0.180540E-07   0.000000E+00   0.828843E+02   0.149639E-05
   LPB:    1   0.223551075756514E+00   0.300705240796267E-01   0.816990E+00   0.000000E+00   0.321304E+02   0.349814E-22
   LPB:    2   0.223557210841730E+00   0.106407023675415E-01   0.110957E-01   0.145335E+02   0.355621E+02  -0.222249E-16
   LPB:    3   0.223557813063771E+00   0.315722442861121E-02   0.773051E-02   0.140891E+00   0.808947E+02  -0.518085E-15
   LPB:    4   0.223557914425939E+00   0.829600244388418E-03   0.824221E-02   0.157864E+00   0.318446E+03  -0.623083E-15
   LPB:    5   0.223557924169151E+00   0.119394513374976E-02   0.948915E-02   0.834916E-01   0.276021E+03  -0.638491E-15
   LPB:    6   0.223557932216723E+00   0.295447437290061E-03   0.852424E-02   0.919464E+00   0.261606E+03  -0.642545E-15
   LPB:    7   0.223557936891979E+00   0.556466329032492E-04   0.265080E-01   0.186818E+00   0.235066E+03  -0.646676E-15
    LS:    0   0.223557936891919E+00   0.379433354782688E-04   0.758866710762701E-04
 resid(G=0) =  -6.752963466194473E-011
  NLPB:    1   0.223557936891919E+00   0.556465498938894E-04
   LPB:        0.223557936891919E+00   0.556465498938484E-04
   LPB:    0   0.223557936891919E+00   0.556465022566638E-04  -0.814746E-12   0.000000E+00   0.828843E+02  -0.675296E-10
   LPB:    1   0.223557938173830E+00   0.696528377120605E-04   0.201792E-01   0.000000E+00   0.161674E+04   0.267277E-26
   LPB:    2   0.223557939047430E+00   0.234640475282390E-03   0.299775E-01   0.458735E+00   0.370409E+03   0.420800E-18
   LPB:    3   0.223557939405289E+00   0.174683447957708E-03   0.786268E-02   0.156180E+01   0.274232E+03   0.648342E-18
   LPB:    4   0.223557939852594E+00   0.132709737088228E-03   0.144154E-01   0.681765E+00   0.220867E+03   0.409501E-18
   LPB:    5   0.223557940173621E+00   0.559827307914503E-04   0.138682E-01   0.746009E+00   0.173343E+03  -0.140957E-18
   LPB:    6   0.223557940284446E+00   0.884417478389144E-04   0.149483E-01   0.320276E+00   0.202591E+03  -0.172668E-18
   LPB:    7   0.223557940371520E+00   0.505049404128283E-04   0.137961E-01   0.851306E+00   0.917456E+02  -0.565486E-18
   LPB:    8   0.223557940475607E+00   0.363664578930524E-04   0.268820E-01   0.613486E+00   0.624684E+03  -0.683122E-18
   LPB:    9   0.223557940539753E+00   0.378081739176362E-04   0.197715E-01   0.837916E+00   0.244969E+03  -0.195613E-17
   LPB:   10   0.223557940584783E+00   0.111238516722842E-04   0.248808E-01   0.557829E+00   0.786453E+02  -0.169583E-17
   LPB:   11   0.223557940608112E+00   0.109361443911182E-04   0.304197E-01   0.423753E+00   0.690390E+03  -0.371145E-17
   LPB:   12   0.223557940628751E+00   0.112751373444863E-04   0.292083E-01   0.921345E+00   0.382073E+03  -0.488038E-17
   LPB:   13   0.223557940640579E+00   0.123726741724760E-04   0.240220E-01   0.696823E+00   0.187651E+03  -0.578275E-17
   LPB:   14   0.223557940647293E+00   0.981952121855908E-05   0.160549E-01   0.849338E+00   0.183081E+03  -0.674884E-17
   LPB:   15   0.223557940650850E+00   0.225626691543916E-04   0.155166E-01   0.548175E+00   0.332068E+03  -0.737253E-17
   LPB:   16   0.223557940653854E+00   0.101090135058416E-04   0.861403E-02   0.152167E+01   0.320703E+03  -0.768917E-17
   LPB:   17   0.223557940657799E+00   0.460369713855299E-05   0.221334E-01   0.510913E+00   0.426332E+03  -0.792384E-17
    LS:    0   0.223557940657778E+00   0.376585920780492E-08   0.753176088178070E-08
 resid(G=0) =  -8.328962519676963E-012
  NLPB:    2   0.223557940657778E+00   0.460283552360539E-05
  Finished solving NLPB equations
 End minimization
 Ecorr=   1873.71018525306     
 A_corr=  0.434480957008406     
 Ecorr_band=  -1873.27570429606     
 End Solvation calculations
RMM:  49    -0.194769212510E+03    0.17285E-03   -0.93257E-06  9043   0.274E-03    0.132E-02
deltaQ =   3.167500E-06
 Dsol_rc =      -0.01655844     -0.00949718     -0.91502994
 Dele =       0.00000000      0.00000000      0.87061853
alpha =   6.000000E-01
DIPOLC =       0.00000000      0.00000000     -0.04456348
ZVAL =  -4.456348E-01
deltaQ =   3.167500E-06
deltaQ =   3.167500E-06
 Dsol_rc =      -0.01655844     -0.00949718     -0.91502994
 Dele =       0.00000000      0.00000000      0.87061853
alpha =   6.000000E-01
DIPOLC =       0.00000000      0.00000000     -0.04456348
ZVAL =  -4.456348E-01
deltaQ =   3.167500E-06
 Dsol_rc =      -0.01655844     -0.00949718     -0.91502994
 Dele =       0.00000000      0.00000000      0.87061853
alpha =   6.000000E-01
DIPOLC =       0.00000000      0.00000000     -0.04456348
ZVAL =  -4.456348E-01
deltaQ =   3.167500E-06
 Dsol_rc =      -0.01655844     -0.00949718     -0.91502994
 Dele =       0.00000000      0.00000000      0.87061853
alpha =   6.000000E-01
DIPOLC =       0.00000000      0.00000000     -0.04456348
ZVAL =  -4.456348E-01
deltaQ =   3.167500E-06
 Dsol_rc =      -0.01655844     -0.00949718     -0.91502994
 Dele =       0.00000000      0.00000000      0.87061853
alpha =   6.000000E-01
DIPOLC =       0.00000000      0.00000000     -0.04456348
ZVAL =  -4.456348E-01
deltaQ =   3.167500E-06
 Dsol_rc =      -0.01655844     -0.00949718     -0.91502994
 Dele =       0.00000000      0.00000000      0.87061853
alpha =   6.000000E-01
DIPOLC =       0.00000000      0.00000000     -0.04456348
ZVAL =  -4.456348E-01
deltaQ =   3.167500E-06
 Dsol_rc =      -0.01655844     -0.00949718     -0.91502994
 Dele =       0.00000000      0.00000000      0.87061853
alpha =   6.000000E-01
DIPOLC =       0.00000000      0.00000000     -0.04456348
ZVAL =  -4.456348E-01
deltaQ =   3.167500E-06
 Dsol_rc =      -0.01655844     -0.00949718     -0.91502994
 Dele =       0.00000000      0.00000000      0.87061853
alpha =   6.000000E-01
DIPOLC =       0.00000000      0.00000000     -0.04456348
ZVAL =  -4.456348E-01
deltaQ =   3.167500E-06
 Dsol_rc =      -0.01655844     -0.00949718     -0.91502994
 Dele =       0.00000000      0.00000000      0.87061853
alpha =   6.000000E-01
DIPOLC =       0.00000000      0.00000000     -0.04456348
ZVAL =  -4.456348E-01
deltaQ =   3.167500E-06
 Dsol_rc =      -0.01655844     -0.00949718     -0.91502994
 Dele =       0.00000000      0.00000000      0.87061853
alpha =   6.000000E-01
DIPOLC =       0.00000000      0.00000000     -0.04456348
ZVAL =  -4.456348E-01
deltaQ =   3.167500E-06
 Dsol_rc =      -0.01655844     -0.00949718     -0.91502994
 Dele =       0.00000000      0.00000000      0.87061853
alpha =   6.000000E-01
DIPOLC =       0.00000000      0.00000000     -0.04456348
ZVAL =  -4.456348E-01
deltaQ =   3.167500E-06
 Dsol_rc =      -0.01655844     -0.00949718     -0.91502994
 Dele =       0.00000000      0.00000000      0.87061853
alpha =   6.000000E-01
DIPOLC =       0.00000000      0.00000000     -0.04456348
ZVAL =  -4.456348E-01
deltaQ =   3.167500E-06
 Dsol_rc =      -0.01655844     -0.00949718     -0.91502994
 Dele =       0.00000000      0.00000000      0.87061853
alpha =   6.000000E-01
DIPOLC =       0.00000000      0.00000000     -0.04456348
ZVAL =  -4.456348E-01
deltaQ =   3.167500E-06
 Dsol_rc =      -0.01655844     -0.00949718     -0.91502994
 Dele =       0.00000000      0.00000000      0.87061853
alpha =   6.000000E-01
DIPOLC =       0.00000000      0.00000000     -0.04456348
ZVAL =  -4.456348E-01
deltaQ =   3.167500E-06
 Dsol_rc =      -0.01655844     -0.00949718     -0.91502994
 Dele =       0.00000000      0.00000000      0.87061853
alpha =   6.000000E-01
DIPOLC =       0.00000000      0.00000000     -0.04456348
ZVAL =  -4.456348E-01
 Dsol_rc =      -0.01655844     -0.00949718     -0.91502994
 Dele =       0.00000000      0.00000000      0.87061853
alpha =   6.000000E-01
DIPOLC =       0.00000000      0.00000000     -0.04456348
ZVAL =  -4.456348E-01
 Begin Solvation calculations
  rms_SCF =   1.103682094826673E-004 tol =   1.103682094826673E-005
 Begin minimization
 Creating dielectric and ionic cavities
  area:      239.957924090877     
  volume:    3288.63411208013     
  A_cav:    0.210923015275881     
  qion_max:     4.88571311642593     
  Solving nonlinear dielectric/ionic screening model
  Starting outer loop
        iter                  A_solv                     rms
 resid(G=0) =  -6.506937456907114E-008
  NLPB:    0   0.223561071709732E+00   0.675827226224491E-03
   LPB:        0.223561071709732E+00   0.675827223092017E-03
   LPB:    0   0.223561071709732E+00   0.675944960045504E-03  -0.785063E-09   0.000000E+00   0.828843E+02  -0.650694E-07
   LPB:    1   0.223561113864879E+00   0.221712390738857E-02   0.150065E+00   0.000000E+00   0.430273E+01  -0.170808E-23
   LPB:    2   0.223561232252706E+00   0.259888450057493E-02   0.344998E-01   0.122157E+02   0.231560E+01  -0.557046E-17
   LPB:    3   0.223561304345095E+00   0.173540056332033E-02   0.111661E-01   0.188148E+01   0.451480E+01  -0.149096E-15
   LPB:    4   0.223561327492498E+00   0.463552965329573E-03   0.103124E-01   0.347658E+00   0.131524E+02  -0.220779E-15
   LPB:    5   0.223561329975105E+00   0.581309150178976E-03   0.864527E-02   0.127935E+00   0.951084E+02  -0.244200E-15
   LPB:    6   0.223561332224346E+00   0.100036403589694E-03   0.931110E-02   0.841212E+00   0.137207E+03  -0.246995E-15
   LPB:    7   0.223561333382522E+00   0.425459650389589E-04   0.263309E-01   0.182085E+00   0.283362E+03  -0.249594E-15
    LS:    0   0.223561333382599E+00   0.261672867041263E-06   0.523345579645065E-06
 resid(G=0) =  -2.814280752883036E-011
  NLPB:    1   0.223561333382599E+00   0.425402876218364E-04
   LPB:        0.223561333382599E+00   0.425402876218270E-04
   LPB:    0   0.223561333382599E+00   0.425402608254832E-04  -0.339543E-12   0.000000E+00   0.828843E+02  -0.281428E-10
   LPB:    1   0.223561333668997E+00   0.478196174285202E-04   0.180692E-01   0.000000E+00   0.689653E+03  -0.972884E-27
   LPB:    2   0.223561333846614E+00   0.693658595070087E-04   0.203696E-01   0.550135E+00   0.525589E+03   0.382493E-18
   LPB:    3   0.223561333987810E+00   0.128269106653059E-03   0.154621E-01   0.104725E+01   0.392589E+03   0.475891E-18
   LPB:    4   0.223561334069668E+00   0.485352008636869E-04   0.744768E-02   0.120361E+01   0.316785E+03   0.493607E-18
   LPB:    5   0.223561334172450E+00   0.269350229838658E-04   0.213042E-01   0.438946E+00   0.286650E+03   0.539511E-18
   LPB:    6   0.223561334202545E+00   0.470554031166493E-04   0.163449E-01   0.381649E+00   0.153688E+03   0.877985E-18
   LPB:    7   0.223561334226130E+00   0.289739823515786E-04   0.132374E-01   0.967661E+00   0.143812E+03   0.117078E-17
   LPB:    8   0.223561334255415E+00   0.195996881483133E-04   0.254773E-01   0.645144E+00   0.527301E+03   0.132928E-17
   LPB:    9   0.223561334272977E+00   0.155979578590982E-04   0.211127E-01   0.723636E+00   0.150973E+03   0.173668E-17
   LPB:   10   0.223561334282679E+00   0.115318156042575E-04   0.218951E-01   0.532715E+00   0.255306E+03   0.214464E-17
   LPB:   11   0.223561334287834E+00   0.808287480915317E-05   0.163276E-01   0.712563E+00   0.292745E+03   0.200594E-17
   LPB:   12   0.223561334292973E+00   0.783269648163917E-05   0.297832E-01   0.546436E+00   0.299936E+03   0.193416E-17
   LPB:   13   0.223561334296938E+00   0.507122272452373E-05   0.209915E-01   0.109495E+01   0.405065E+03   0.213725E-17
   LPB:   14   0.223561334299310E+00   0.135270353924116E-04   0.219251E-01   0.572618E+00   0.365913E+03   0.218208E-17
   LPB:   15   0.223561334300175E+00   0.670982985561989E-05   0.665462E-02   0.120211E+01   0.278460E+03   0.222944E-17
   LPB:   16   0.223561334301680E+00   0.368951046754838E-05   0.226922E-01   0.509893E+00   0.315601E+03   0.224168E-17
    LS:    0   0.223561334301828E+00   0.919228831941510E-09   0.183816253941402E-08
 resid(G=0) =  -5.956138360296848E-012
  NLPB:    2   0.223561334301828E+00   0.369324978910843E-05
  Finished solving NLPB equations
 End minimization
 Ecorr=   1873.86534963177     
 A_corr=  0.434484349577709     
 Ecorr_band=  -1873.43086528220     
 End Solvation calculations
RMM:  50    -0.194769204330E+03    0.81799E-05   -0.18873E-06  7110   0.129E-03    0.717E-03
deltaQ =   3.167805E-06
 Dsol_rc =      -0.01654180     -0.00949689     -0.91537452
 Dele =       0.00000000      0.00000000      0.87210858
alpha =   6.000000E-01
DIPOLC =       0.00000000      0.00000000     -0.04378495
ZVAL =  -4.378495E-01
deltaQ =   3.167805E-06
 Dsol_rc =      -0.01654180     -0.00949689     -0.91537452
 Dele =       0.00000000      0.00000000      0.87210858
alpha =   6.000000E-01
DIPOLC =       0.00000000      0.00000000     -0.04378495
ZVAL =  -4.378495E-01
deltaQ =   3.167805E-06
 Dsol_rc =      -0.01654180     -0.00949689     -0.91537452
 Dele =       0.00000000      0.00000000      0.87210858
alpha =   6.000000E-01
DIPOLC =       0.00000000      0.00000000     -0.04378495
ZVAL =  -4.378495E-01
deltaQ =   3.167805E-06
deltaQ =   3.167805E-06
 Dsol_rc =      -0.01654180     -0.00949689     -0.91537452
 Dele =       0.00000000      0.00000000      0.87210858
alpha =   6.000000E-01
DIPOLC =       0.00000000      0.00000000     -0.04378495
ZVAL =  -4.378495E-01
deltaQ =   3.167805E-06
 Dsol_rc =      -0.01654180     -0.00949689     -0.91537452
 Dele =       0.00000000      0.00000000      0.87210858
alpha =   6.000000E-01
DIPOLC =       0.00000000      0.00000000     -0.04378495
ZVAL =  -4.378495E-01
deltaQ =   3.167805E-06
 Dsol_rc =      -0.01654180     -0.00949689     -0.91537452
 Dele =       0.00000000      0.00000000      0.87210858
alpha =   6.000000E-01
DIPOLC =       0.00000000      0.00000000     -0.04378495
ZVAL =  -4.378495E-01
deltaQ =   3.167805E-06
 Dsol_rc =      -0.01654180     -0.00949689     -0.91537452
 Dele =       0.00000000      0.00000000      0.87210858
alpha =   6.000000E-01
DIPOLC =       0.00000000      0.00000000     -0.04378495
ZVAL =  -4.378495E-01
deltaQ =   3.167805E-06
 Dsol_rc =      -0.01654180     -0.00949689     -0.91537452
 Dele =       0.00000000      0.00000000      0.87210858
alpha =   6.000000E-01
DIPOLC =       0.00000000      0.00000000     -0.04378495
ZVAL =  -4.378495E-01
deltaQ =   3.167805E-06
 Dsol_rc =      -0.01654180     -0.00949689     -0.91537452
 Dele =       0.00000000      0.00000000      0.87210858
alpha =   6.000000E-01
DIPOLC =       0.00000000      0.00000000     -0.04378495
ZVAL =  -4.378495E-01
deltaQ =   3.167805E-06
 Dsol_rc =      -0.01654180     -0.00949689     -0.91537452
 Dele =       0.00000000      0.00000000      0.87210858
alpha =   6.000000E-01
DIPOLC =       0.00000000      0.00000000     -0.04378495
ZVAL =  -4.378495E-01
deltaQ =   3.167805E-06
 Dsol_rc =      -0.01654180     -0.00949689     -0.91537452
 Dele =       0.00000000      0.00000000      0.87210858
alpha =   6.000000E-01
DIPOLC =       0.00000000      0.00000000     -0.04378495
ZVAL =  -4.378495E-01
deltaQ =   3.167805E-06
 Dsol_rc =      -0.01654180     -0.00949689     -0.91537452
 Dele =       0.00000000      0.00000000      0.87210858
alpha =   6.000000E-01
DIPOLC =       0.00000000      0.00000000     -0.04378495
ZVAL =  -4.378495E-01
deltaQ =   3.167805E-06
 Dsol_rc =      -0.01654180     -0.00949689     -0.91537452
 Dele =       0.00000000      0.00000000      0.87210858
alpha =   6.000000E-01
DIPOLC =       0.00000000      0.00000000     -0.04378495
ZVAL =  -4.378495E-01
deltaQ =   3.167805E-06
 Dsol_rc =      -0.01654180     -0.00949689     -0.91537452
 Dele =       0.00000000      0.00000000      0.87210858
alpha =   6.000000E-01
DIPOLC =       0.00000000      0.00000000     -0.04378495
ZVAL =  -4.378495E-01
deltaQ =   3.167805E-06
 Dsol_rc =      -0.01654180     -0.00949689     -0.91537452
 Dele =       0.00000000      0.00000000      0.87210858
alpha =   6.000000E-01
DIPOLC =       0.00000000      0.00000000     -0.04378495
ZVAL =  -4.378495E-01
 Dsol_rc =      -0.01654180     -0.00949689     -0.91537452
 Dele =       0.00000000      0.00000000      0.87210858
alpha =   6.000000E-01
DIPOLC =       0.00000000      0.00000000     -0.04378495
ZVAL =  -4.378495E-01
 Begin Solvation calculations
  rms_SCF =   1.103682094826673E-004 tol =   1.103682094826673E-005
 Begin minimization
 Creating dielectric and ionic cavities
  area:      239.957921763964     
  volume:    3288.63604939263     
  A_cav:    0.210923013230525     
  qion_max:     4.88570750410280     
  Solving nonlinear dielectric/ionic screening model
  Starting outer loop
        iter                  A_solv                     rms
 resid(G=0) =  -5.572049892876851E-007
  NLPB:    0   0.223620307295775E+00   0.583088905996268E-03
   LPB:        0.223620307295775E+00   0.583088639761164E-03
   LPB:    0   0.223620307295777E+00   0.583928807259841E-03  -0.672270E-08   0.000000E+00   0.828842E+02  -0.557205E-06
   LPB:    1   0.223620965874861E+00   0.706901484144744E-02   0.666914E+00   0.000000E+00   0.583089E+01  -0.198792E-22
   LPB:    2   0.223621188820400E+00   0.201223201457376E-02   0.950632E-02   0.237492E+02   0.174431E+02  -0.263244E-15
   LPB:    3   0.223621279007696E+00   0.106483587157249E-02   0.108924E-01   0.353051E+00   0.380570E+02  -0.335698E-15
   LPB:    4   0.223621286418120E+00   0.569805016447684E-03   0.951071E-02   0.941037E-01   0.491155E+02  -0.369541E-15
   LPB:    5   0.223621287478310E+00   0.181051435740940E-03   0.515329E-02   0.264040E+00   0.150582E+03  -0.352946E-15
   LPB:    6   0.223621288098136E+00   0.551743508383628E-04   0.138717E-01   0.217191E+00   0.422580E+03  -0.350376E-15
    LS:    0   0.223621288097995E+00   0.980802219774368E-06   0.196160472128779E-05
 resid(G=0) =  -9.850426030411086E-012
  NLPB:    1   0.223621288097995E+00   0.551727176478321E-04
   LPB:        0.223621288097995E+00   0.551727176478312E-04
   LPB:    0   0.223621288097995E+00   0.551727073066178E-04  -0.118846E-12   0.000000E+00   0.828842E+02  -0.985043E-11
   LPB:    1   0.223621288326608E+00   0.692653509656304E-04   0.163486E-01   0.000000E+00   0.357391E+03   0.100675E-26
   LPB:    2   0.223621288442574E+00   0.145933119915746E-03   0.151167E-01   0.548597E+00   0.102001E+03  -0.307777E-18
   LPB:    3   0.223621288557217E+00   0.671127490562286E-04   0.883260E-02   0.169195E+01   0.129140E+03  -0.977340E-18
   LPB:    4   0.223621288613747E+00   0.258941992873010E-04   0.145668E-01   0.298988E+00   0.148716E+03  -0.141288E-17
   LPB:    5   0.223621288640932E+00   0.467078769873131E-04   0.186334E-01   0.375953E+00   0.601008E+03  -0.381083E-18
   LPB:    6   0.223621288665117E+00   0.286199955958775E-04   0.130257E-01   0.127259E+01   0.112318E+03  -0.286520E-18
   LPB:    7   0.223621288690014E+00   0.103289535513679E-04   0.283918E-01   0.472301E+00   0.158320E+03  -0.359461E-19
   LPB:    8   0.223621288698164E+00   0.170404736204008E-04   0.216530E-01   0.429261E+00   0.494402E+03   0.197273E-18
   LPB:    9   0.223621288707441E+00   0.627918264478637E-05   0.198664E-01   0.124056E+01   0.304844E+03   0.324725E-18
   LPB:   10   0.223621288710885E+00   0.492014036655245E-05   0.207793E-01   0.354918E+00   0.181566E+03   0.530618E-18
    LS:    0   0.223621288711108E+00   0.613112921543646E-09   0.122578125098345E-08
 resid(G=0) =  -4.624911564832246E-012
  NLPB:    2   0.223621288711108E+00   0.492013483945104E-05
  Finished solving NLPB equations
 End minimization
 Ecorr=   1874.20510513102     
 A_corr=  0.434544301941633     
 Ecorr_band=  -1873.77056082908     
 End Solvation calculations
RMM:  51    -0.194769226988E+03   -0.22658E-04   -0.23362E-06  7431   0.145E-03    0.114E-03
deltaQ =   3.167698E-06
 Dsol_rc =      -0.01656105     -0.00949655     -0.91496422
 Dele =       0.00000000      0.00000000      0.87283682
alpha =   6.000000E-01
DIPOLC =       0.00000000      0.00000000     -0.04279042
ZVAL =  -4.279042E-01
deltaQ =   3.167698E-06
deltaQ =   3.167698E-06
 Dsol_rc =      -0.01656105     -0.00949655     -0.91496422
 Dele =       0.00000000      0.00000000      0.87283682
alpha =   6.000000E-01
DIPOLC =       0.00000000      0.00000000     -0.04279042
ZVAL =  -4.279042E-01
deltaQ =   3.167698E-06
 Dsol_rc =      -0.01656105     -0.00949655     -0.91496422
 Dele =       0.00000000      0.00000000      0.87283682
alpha =   6.000000E-01
DIPOLC =       0.00000000      0.00000000     -0.04279042
ZVAL =  -4.279042E-01
deltaQ =   3.167698E-06
 Dsol_rc =      -0.01656105     -0.00949655     -0.91496422
 Dele =       0.00000000      0.00000000      0.87283682
alpha =   6.000000E-01
DIPOLC =       0.00000000      0.00000000     -0.04279042
ZVAL =  -4.279042E-01
deltaQ =   3.167698E-06
 Dsol_rc =      -0.01656105     -0.00949655     -0.91496422
 Dele =       0.00000000      0.00000000      0.87283682
alpha =   6.000000E-01
DIPOLC =       0.00000000      0.00000000     -0.04279042
ZVAL =  -4.279042E-01
deltaQ =   3.167698E-06
 Dsol_rc =      -0.01656105     -0.00949655     -0.91496422
 Dele =       0.00000000      0.00000000      0.87283682
alpha =   6.000000E-01
DIPOLC =       0.00000000      0.00000000     -0.04279042
ZVAL =  -4.279042E-01
deltaQ =   3.167698E-06
 Dsol_rc =      -0.01656105     -0.00949655     -0.91496422
 Dele =       0.00000000      0.00000000      0.87283682
alpha =   6.000000E-01
DIPOLC =       0.00000000      0.00000000     -0.04279042
ZVAL =  -4.279042E-01
deltaQ =   3.167698E-06
 Dsol_rc =      -0.01656105     -0.00949655     -0.91496422
 Dele =       0.00000000      0.00000000      0.87283682
alpha =   6.000000E-01
DIPOLC =       0.00000000      0.00000000     -0.04279042
ZVAL =  -4.279042E-01
deltaQ =   3.167698E-06
 Dsol_rc =      -0.01656105     -0.00949655     -0.91496422
 Dele =       0.00000000      0.00000000      0.87283682
alpha =   6.000000E-01
DIPOLC =       0.00000000      0.00000000     -0.04279042
ZVAL =  -4.279042E-01
deltaQ =   3.167698E-06
 Dsol_rc =      -0.01656105     -0.00949655     -0.91496422
 Dele =       0.00000000      0.00000000      0.87283682
alpha =   6.000000E-01
DIPOLC =       0.00000000      0.00000000     -0.04279042
ZVAL =  -4.279042E-01
deltaQ =   3.167698E-06
 Dsol_rc =      -0.01656105     -0.00949655     -0.91496422
 Dele =       0.00000000      0.00000000      0.87283682
alpha =   6.000000E-01
DIPOLC =       0.00000000      0.00000000     -0.04279042
ZVAL =  -4.279042E-01
deltaQ =   3.167698E-06
 Dsol_rc =      -0.01656105     -0.00949655     -0.91496422
 Dele =       0.00000000      0.00000000      0.87283682
alpha =   6.000000E-01
DIPOLC =       0.00000000      0.00000000     -0.04279042
ZVAL =  -4.279042E-01
deltaQ =   3.167698E-06
 Dsol_rc =      -0.01656105     -0.00949655     -0.91496422
 Dele =       0.00000000      0.00000000      0.87283682
alpha =   6.000000E-01
DIPOLC =       0.00000000      0.00000000     -0.04279042
ZVAL =  -4.279042E-01
deltaQ =   3.167698E-06
 Dsol_rc =      -0.01656105     -0.00949655     -0.91496422
 Dele =       0.00000000      0.00000000      0.87283682
alpha =   6.000000E-01
DIPOLC =       0.00000000      0.00000000     -0.04279042
ZVAL =  -4.279042E-01
deltaQ =   3.167698E-06
 Dsol_rc =      -0.01656105     -0.00949655     -0.91496422
 Dele =       0.00000000      0.00000000      0.87283682
alpha =   6.000000E-01
DIPOLC =       0.00000000      0.00000000     -0.04279042
ZVAL =  -4.279042E-01
 Dsol_rc =      -0.01656105     -0.00949655     -0.91496422
 Dele =       0.00000000      0.00000000      0.87283682
alpha =   6.000000E-01
DIPOLC =       0.00000000      0.00000000     -0.04279042
ZVAL =  -4.279042E-01
 Begin Solvation calculations
  rms_SCF =   1.103682094826673E-004 tol =   1.103682094826673E-005
 Begin minimization
 Creating dielectric and ionic cavities
  area:      239.957922805826     
  volume:    3288.63750423553     
  A_cav:    0.210923014146321     
  qion_max:     4.88570331469050     
  Solving nonlinear dielectric/ionic screening model
  Starting outer loop
        iter                  A_solv                     rms
 resid(G=0) =  -4.159008789167418E-007
  NLPB:    0   0.223640551200707E+00   0.504634050971467E-03
   LPB:        0.223640551200707E+00   0.504633879586312E-03
   LPB:    0   0.223640551200708E+00   0.505171247608422E-03  -0.501786E-08   0.000000E+00   0.828841E+02  -0.415901E-06
   LPB:    1   0.223641789561011E+00   0.718030000963102E-02   0.873075E+00   0.000000E+00   0.949228E+01  -0.332727E-22
   LPB:    2   0.223641948879745E+00   0.103507660040465E-02   0.626744E-02   0.179218E+02   0.745586E+02  -0.150879E-15
   LPB:    3   0.223641965564568E+00   0.260017063280498E-03   0.976216E-02   0.672356E-01   0.210951E+03  -0.196361E-15
   LPB:    4   0.223641966957237E+00   0.131136758292352E-03   0.124699E-01   0.653446E-01   0.274024E+03  -0.213996E-15
   LPB:    5   0.223641967312191E+00   0.236441390524003E-03   0.121556E-01   0.261464E+00   0.277127E+03  -0.215565E-15
   LPB:    6   0.223641967586122E+00   0.447303854706663E-04   0.781765E-02   0.119996E+01   0.271858E+03  -0.216159E-15
    LS:    0   0.223641967585899E+00   0.141638519168819E-05   0.283277082915399E-05
 resid(G=0) =  -8.732584100279439E-012
  NLPB:    1   0.223641967585899E+00   0.447315827346647E-04
   LPB:        0.223641967585899E+00   0.447315827346639E-04
   LPB:    0   0.223641967585899E+00   0.447315876103094E-04  -0.105359E-12   0.000000E+00   0.828841E+02  -0.873258E-11
   LPB:    1   0.223641967685091E+00   0.907628321390173E-04   0.141459E-01   0.000000E+00   0.438451E+03   0.493259E-27
   LPB:    2   0.223641967734750E+00   0.586852649052205E-04   0.788094E-02   0.898613E+00   0.371202E+03   0.293316E-18
   LPB:    3   0.223641967799404E+00   0.477347281032250E-04   0.163432E-01   0.627832E+00   0.513754E+03   0.506165E-18
   LPB:    4   0.223641967857173E+00   0.228775560316184E-04   0.186811E-01   0.781674E+00   0.292522E+03   0.835677E-18
   LPB:    5   0.223641967884028E+00   0.156142796809522E-04   0.175274E-01   0.495469E+00   0.207335E+03   0.102339E-17
   LPB:    6   0.223641967892325E+00   0.298846122616785E-04   0.151040E-01   0.358533E+00   0.130581E+03   0.895358E-18
   LPB:    7   0.223641967901809E+00   0.215202805912424E-04   0.173521E-01   0.994988E+00   0.222599E+03   0.697587E-18
   LPB:    8   0.223641967909496E+00   0.811888630272098E-05   0.165396E-01   0.850249E+00   0.215934E+03   0.782353E-18
   LPB:    9   0.223641967914212E+00   0.345644672448975E-05   0.243401E-01   0.416983E+00   0.442884E+03   0.104855E-17
    LS:    0   0.223641967914289E+00   0.328390092896313E-09   0.656627120362787E-09
 resid(G=0) =  -3.282471516818930E-012
  NLPB:    2   0.223641967914289E+00   0.345553846235402E-05
  Finished solving NLPB equations
 End minimization
 Ecorr=   1874.36580637368     
 A_corr=  0.434564982060610     
 Ecorr_band=  -1873.93124139162     
 End Solvation calculations
RMM:  52    -0.194769261918E+03   -0.34930E-04   -0.13316E-06  6985   0.112E-03    0.352E-03
deltaQ =   3.167577E-06
 Dsol_rc =      -0.01656253     -0.00949618     -0.91512388
 Dele =       0.00000000      0.00000000      0.87278949
alpha =   6.000000E-01
DIPOLC =       0.00000000      0.00000000     -0.04251681
ZVAL =  -4.251681E-01
deltaQ =   3.167577E-06
 Dsol_rc =      -0.01656253     -0.00949618     -0.91512388
 Dele =       0.00000000      0.00000000      0.87278949
alpha =   6.000000E-01
DIPOLC =       0.00000000      0.00000000     -0.04251681
ZVAL =  -4.251681E-01
deltaQ =   3.167577E-06
deltaQ =   3.167577E-06
 Dsol_rc =      -0.01656253     -0.00949618     -0.91512388
 Dele =       0.00000000      0.00000000      0.87278949
alpha =   6.000000E-01
DIPOLC =       0.00000000      0.00000000     -0.04251681
ZVAL =  -4.251681E-01
deltaQ =   3.167577E-06
 Dsol_rc =      -0.01656253     -0.00949618     -0.91512388
 Dele =       0.00000000      0.00000000      0.87278949
alpha =   6.000000E-01
DIPOLC =       0.00000000      0.00000000     -0.04251681
ZVAL =  -4.251681E-01
deltaQ =   3.167577E-06
 Dsol_rc =      -0.01656253     -0.00949618     -0.91512388
 Dele =       0.00000000      0.00000000      0.87278949
alpha =   6.000000E-01
DIPOLC =       0.00000000      0.00000000     -0.04251681
ZVAL =  -4.251681E-01
deltaQ =   3.167577E-06
 Dsol_rc =      -0.01656253     -0.00949618     -0.91512388
 Dele =       0.00000000      0.00000000      0.87278949
alpha =   6.000000E-01
DIPOLC =       0.00000000      0.00000000     -0.04251681
ZVAL =  -4.251681E-01
deltaQ =   3.167577E-06
 Dsol_rc =      -0.01656253     -0.00949618     -0.91512388
 Dele =       0.00000000      0.00000000      0.87278949
alpha =   6.000000E-01
DIPOLC =       0.00000000      0.00000000     -0.04251681
ZVAL =  -4.251681E-01
deltaQ =   3.167577E-06
 Dsol_rc =      -0.01656253     -0.00949618     -0.91512388
 Dele =       0.00000000      0.00000000      0.87278949
alpha =   6.000000E-01
DIPOLC =       0.00000000      0.00000000     -0.04251681
ZVAL =  -4.251681E-01
deltaQ =   3.167577E-06
 Dsol_rc =      -0.01656253     -0.00949618     -0.91512388
 Dele =       0.00000000      0.00000000      0.87278949
alpha =   6.000000E-01
DIPOLC =       0.00000000      0.00000000     -0.04251681
ZVAL =  -4.251681E-01
deltaQ =   3.167577E-06
 Dsol_rc =      -0.01656253     -0.00949618     -0.91512388
 Dele =       0.00000000      0.00000000      0.87278949
alpha =   6.000000E-01
DIPOLC =       0.00000000      0.00000000     -0.04251681
ZVAL =  -4.251681E-01
deltaQ =   3.167577E-06
 Dsol_rc =      -0.01656253     -0.00949618     -0.91512388
 Dele =       0.00000000      0.00000000      0.87278949
alpha =   6.000000E-01
DIPOLC =       0.00000000      0.00000000     -0.04251681
ZVAL =  -4.251681E-01
deltaQ =   3.167577E-06
 Dsol_rc =      -0.01656253     -0.00949618     -0.91512388
 Dele =       0.00000000      0.00000000      0.87278949
alpha =   6.000000E-01
DIPOLC =       0.00000000      0.00000000     -0.04251681
ZVAL =  -4.251681E-01
deltaQ =   3.167577E-06
 Dsol_rc =      -0.01656253     -0.00949618     -0.91512388
 Dele =       0.00000000      0.00000000      0.87278949
alpha =   6.000000E-01
DIPOLC =       0.00000000      0.00000000     -0.04251681
ZVAL =  -4.251681E-01
deltaQ =   3.167577E-06
 Dsol_rc =      -0.01656253     -0.00949618     -0.91512388
 Dele =       0.00000000      0.00000000      0.87278949
alpha =   6.000000E-01
DIPOLC =       0.00000000      0.00000000     -0.04251681
ZVAL =  -4.251681E-01
deltaQ =   3.167577E-06
 Dsol_rc =      -0.01656253     -0.00949618     -0.91512388
 Dele =       0.00000000      0.00000000      0.87278949
alpha =   6.000000E-01
DIPOLC =       0.00000000      0.00000000     -0.04251681
ZVAL =  -4.251681E-01
 Dsol_rc =      -0.01656253     -0.00949618     -0.91512388
 Dele =       0.00000000      0.00000000      0.87278949
alpha =   6.000000E-01
DIPOLC =       0.00000000      0.00000000     -0.04251681
ZVAL =  -4.251681E-01
 Begin Solvation calculations
  rms_SCF =   1.103682094826673E-004 tol =   1.103682094826673E-005
 Begin minimization
 Creating dielectric and ionic cavities
  area:      239.957927633457     
  volume:    3288.63757745734     
  A_cav:    0.210923018389809     
  qion_max:     4.88570305722451     
  Solving nonlinear dielectric/ionic screening model
  Starting outer loop
        iter                  A_solv                     rms
 resid(G=0) =  -2.537057466889259E-008
  NLPB:    0   0.223623744913306E+00   0.147403749272930E-03
   LPB:        0.223623744913306E+00   0.147403747089586E-03
   LPB:    0   0.223623744913306E+00   0.147410593534793E-03  -0.306097E-09   0.000000E+00   0.828841E+02  -0.253706E-07
   LPB:    1   0.223623765684948E+00   0.251675437218759E-02   0.199042E+00   0.000000E+00   0.474205E+02  -0.220905E-24
   LPB:    2   0.223623811470615E+00   0.104392847725310E-02   0.180177E-01   0.243503E+02   0.611998E+02  -0.128591E-17
   LPB:    3   0.223623841725804E+00   0.374461526940992E-03   0.176970E-01   0.672775E+00   0.842685E+02  -0.152223E-16
   LPB:    4   0.223623845010819E+00   0.131844776176542E-03   0.123732E-01   0.155294E+00   0.291812E+03  -0.478965E-16
   LPB:    5   0.223623845346497E+00   0.150632934161538E-03   0.104811E-01   0.120632E+00   0.260155E+03  -0.490784E-16
   LPB:    6   0.223623845467316E+00   0.842886614452499E-04   0.702512E-02   0.536989E+00   0.313321E+03  -0.498093E-16
   LPB:    7   0.223623845612393E+00   0.318741962764226E-04   0.168827E-01   0.499660E+00   0.430030E+03  -0.501503E-16
   LPB:    8   0.223623845673551E+00   0.318982756143903E-04   0.173319E-01   0.410632E+00   0.307122E+03  -0.506707E-16
   LPB:    9   0.223623845727888E+00   0.117762730544192E-04   0.218229E-01   0.705620E+00   0.597326E+03  -0.509452E-16
    LS:    0   0.223623845727801E+00   0.100814495584967E-06   0.201629163922981E-06
 resid(G=0) =  -1.458765053197197E-011
  NLPB:    1   0.223623845727801E+00   0.117762873084709E-04
   LPB:        0.223623845727801E+00   0.117762873084619E-04
   LPB:    0   0.223623845727801E+00   0.117762986926254E-04  -0.176001E-12   0.000000E+00   0.828841E+02  -0.145877E-10
   LPB:    1   0.223623845743196E+00   0.108479314542542E-04   0.157293E-01   0.000000E+00   0.602529E+03  -0.978601E-28
   LPB:    2   0.223623845749858E+00   0.106241287917068E-04   0.195398E-01   0.348386E+00   0.396306E+03   0.150187E-18
   LPB:    3   0.223623845755654E+00   0.105993552924099E-04   0.204320E-01   0.831960E+00   0.902542E+03   0.536510E-19
   LPB:    4   0.223623845758360E+00   0.206863763871583E-04   0.143342E-01   0.665501E+00   0.224081E+03  -0.512805E-20
   LPB:    5   0.223623845761128E+00   0.983794733169835E-05   0.951106E-02   0.154191E+01   0.264701E+03  -0.761943E-20
   LPB:    6   0.223623845763730E+00   0.513000187030573E-05   0.174597E-01   0.511928E+00   0.394218E+03  -0.487435E-20
   LPB:    7   0.223623845764816E+00   0.198655649793983E-05   0.181372E-01   0.401643E+00   0.187803E+03  -0.167867E-18
   LPB:    8   0.223623845765249E+00   0.325226150911918E-05   0.214489E-01   0.337124E+00   0.274749E+03  -0.227387E-18
   LPB:    9   0.223623845765545E+00   0.579923271977748E-05   0.157929E-01   0.931432E+00   0.139272E+03  -0.264871E-18
   LPB:   10   0.223623845765976E+00   0.293764525332411E-05   0.205005E-01   0.111826E+01   0.294669E+03  -0.292048E-18
   LPB:   11   0.223623845766196E+00   0.160279864269814E-05   0.143791E-01   0.727080E+00   0.290970E+03  -0.279629E-18
   LPB:   12   0.223623845766459E+00   0.856161615329981E-06   0.280934E-01   0.613882E+00   0.520681E+03  -0.280061E-18
    LS:    0   0.223623845766553E+00   0.387511689403652E-10   0.773161096120963E-10
 resid(G=0) =  -2.817468480742491E-013
  NLPB:    2   0.223623845766553E+00   0.856158060089661E-06
  Finished solving NLPB equations
 End minimization
 Ecorr=   1874.29885783775     
 A_corr=  0.434546864156362     
 Ecorr_band=  -1873.86431097359     
 End Solvation calculations
RMM:  53    -0.194769272030E+03   -0.10112E-04   -0.89685E-08  4061   0.410E-04    0.367E-03
deltaQ =   3.167435E-06
 Dsol_rc =      -0.01655803     -0.00949616     -0.91549815
 Dele =       0.00000000      0.00000000      0.87249666
alpha =   3.000000E-01
DIPOLC =       0.00000000      0.00000000     -0.04266221
ZVAL =  -4.266221E-01
deltaQ =   3.167435E-06
 Dsol_rc =      -0.01655803     -0.00949616     -0.91549815
 Dele =       0.00000000      0.00000000      0.87249666
alpha =   3.000000E-01
DIPOLC =       0.00000000      0.00000000     -0.04266221
ZVAL =  -4.266221E-01
deltaQ =   3.167435E-06
 Dsol_rc =      -0.01655803     -0.00949616     -0.91549815
 Dele =       0.00000000      0.00000000      0.87249666
alpha =   3.000000E-01
DIPOLC =       0.00000000      0.00000000     -0.04266221
ZVAL =  -4.266221E-01
deltaQ =   3.167435E-06
 Dsol_rc =      -0.01655803     -0.00949616     -0.91549815
 Dele =       0.00000000      0.00000000      0.87249666
alpha =   3.000000E-01
DIPOLC =       0.00000000      0.00000000     -0.04266221
ZVAL =  -4.266221E-01
deltaQ =   3.167435E-06
deltaQ =   3.167435E-06
 Dsol_rc =      -0.01655803     -0.00949616     -0.91549815
 Dele =       0.00000000      0.00000000      0.87249666
alpha =   3.000000E-01
DIPOLC =       0.00000000      0.00000000     -0.04266221
ZVAL =  -4.266221E-01
deltaQ =   3.167435E-06
 Dsol_rc =      -0.01655803     -0.00949616     -0.91549815
 Dele =       0.00000000      0.00000000      0.87249666
alpha =   3.000000E-01
DIPOLC =       0.00000000      0.00000000     -0.04266221
ZVAL =  -4.266221E-01
deltaQ =   3.167435E-06
 Dsol_rc =      -0.01655803     -0.00949616     -0.91549815
 Dele =       0.00000000      0.00000000      0.87249666
alpha =   3.000000E-01
DIPOLC =       0.00000000      0.00000000     -0.04266221
ZVAL =  -4.266221E-01
deltaQ =   3.167435E-06
 Dsol_rc =      -0.01655803     -0.00949616     -0.91549815
 Dele =       0.00000000      0.00000000      0.87249666
alpha =   3.000000E-01
DIPOLC =       0.00000000      0.00000000     -0.04266221
ZVAL =  -4.266221E-01
deltaQ =   3.167435E-06
 Dsol_rc =      -0.01655803     -0.00949616     -0.91549815
 Dele =       0.00000000      0.00000000      0.87249666
alpha =   3.000000E-01
DIPOLC =       0.00000000      0.00000000     -0.04266221
ZVAL =  -4.266221E-01
deltaQ =   3.167435E-06
 Dsol_rc =      -0.01655803     -0.00949616     -0.91549815
 Dele =       0.00000000      0.00000000      0.87249666
alpha =   3.000000E-01
DIPOLC =       0.00000000      0.00000000     -0.04266221
ZVAL =  -4.266221E-01
deltaQ =   3.167435E-06
 Dsol_rc =      -0.01655803     -0.00949616     -0.91549815
 Dele =       0.00000000      0.00000000      0.87249666
alpha =   3.000000E-01
DIPOLC =       0.00000000      0.00000000     -0.04266221
ZVAL =  -4.266221E-01
deltaQ =   3.167435E-06
 Dsol_rc =      -0.01655803     -0.00949616     -0.91549815
 Dele =       0.00000000      0.00000000      0.87249666
alpha =   3.000000E-01
DIPOLC =       0.00000000      0.00000000     -0.04266221
ZVAL =  -4.266221E-01
deltaQ =   3.167435E-06
 Dsol_rc =      -0.01655803     -0.00949616     -0.91549815
 Dele =       0.00000000      0.00000000      0.87249666
alpha =   3.000000E-01
DIPOLC =       0.00000000      0.00000000     -0.04266221
ZVAL =  -4.266221E-01
deltaQ =   3.167435E-06
 Dsol_rc =      -0.01655803     -0.00949616     -0.91549815
 Dele =       0.00000000      0.00000000      0.87249666
alpha =   3.000000E-01
DIPOLC =       0.00000000      0.00000000     -0.04266221
ZVAL =  -4.266221E-01
deltaQ =   3.167435E-06
 Dsol_rc =      -0.01655803     -0.00949616     -0.91549815
 Dele =       0.00000000      0.00000000      0.87249666
alpha =   3.000000E-01
DIPOLC =       0.00000000      0.00000000     -0.04266221
ZVAL =  -4.266221E-01
 Dsol_rc =      -0.01655803     -0.00949616     -0.91549815
 Dele =       0.00000000      0.00000000      0.87249666
alpha =   3.000000E-01
DIPOLC =       0.00000000      0.00000000     -0.04266221
ZVAL =  -4.266221E-01
 Begin Solvation calculations
  rms_SCF =   1.103682094826673E-004 tol =   1.103682094826673E-005
 Begin minimization
 Creating dielectric and ionic cavities
  area:      239.957930425422     
  volume:    3288.63716575310     
  A_cav:    0.210923020843946     
  qion_max:     4.88570421210028     
  Solving nonlinear dielectric/ionic screening model
  Starting outer loop
        iter                  A_solv                     rms
 resid(G=0) =   1.147188354311268E-007
  NLPB:    0   0.223606522955506E+00   0.124125745659605E-03
   LPB:        0.223606522955506E+00   0.124125692647179E-03
   LPB:    0   0.223606522955506E+00   0.124276142525082E-03   0.138409E-08   0.000000E+00   0.828841E+02   0.114719E-06
   LPB:    1   0.223606531837184E+00   0.164079647559781E-02   0.237467E+00   0.000000E+00   0.153699E+02   0.337055E-23
   LPB:    2   0.223606549685177E+00   0.607212239708071E-03   0.167409E-01   0.285050E+02   0.714571E+01   0.109888E-16
   LPB:    3   0.223606558255893E+00   0.231886265866039E-03   0.153673E-01   0.523130E+00   0.993405E+01   0.202517E-16
   LPB:    4   0.223606559215168E+00   0.513189573435615E-04   0.122022E-01   0.140956E+00   0.799345E+02   0.107353E-16
   LPB:    5   0.223606559316448E+00   0.424854291097112E-04   0.133486E-01   0.965125E-01   0.151622E+03   0.126530E-16
   LPB:    6   0.223606559343174E+00   0.710858597516699E-04   0.113203E-01   0.311158E+00   0.308944E+03   0.127537E-16
   LPB:    7   0.223606559376448E+00   0.109015526104891E-04   0.103608E-01   0.136035E+01   0.201084E+03   0.127268E-16
    LS:    0   0.223606559376436E+00   0.364209304659635E-07   0.728418848121834E-07
 resid(G=0) =  -4.863942582034042E-012
  NLPB:    1   0.223606559376436E+00   0.109015506354267E-04
  Finished solving NLPB equations
 End minimization
 Ecorr=   1874.20806396199     
 A_corr=  0.434529580220382     
 Ecorr_band=  -1873.77353438177     
 End Solvation calculations
RMM:  54    -0.194769267281E+03    0.47490E-05   -0.59893E-08  4024   0.257E-04    0.233E-03
deltaQ =   3.167478E-06
 Dsol_rc =      -0.01651598     -0.00949622     -0.91569133
 Dele =       0.00000000      0.00000000      0.87231002
alpha =   6.000000E-01
DIPOLC =       0.00000000      0.00000000     -0.04309367
ZVAL =  -4.309367E-01
deltaQ =   3.167478E-06
 Dsol_rc =      -0.01651598     -0.00949622     -0.91569133
 Dele =       0.00000000      0.00000000      0.87231002
alpha =   6.000000E-01
DIPOLC =       0.00000000      0.00000000     -0.04309367
ZVAL =  -4.309367E-01
deltaQ =   3.167478E-06
 Dsol_rc =      -0.01651598     -0.00949622     -0.91569133
 Dele =       0.00000000      0.00000000      0.87231002
alpha =   6.000000E-01
DIPOLC =       0.00000000      0.00000000     -0.04309367
ZVAL =  -4.309367E-01
deltaQ =   3.167478E-06
deltaQ =   3.167478E-06
 Dsol_rc =      -0.01651598     -0.00949622     -0.91569133
 Dele =       0.00000000      0.00000000      0.87231002
alpha =   6.000000E-01
DIPOLC =       0.00000000      0.00000000     -0.04309367
ZVAL =  -4.309367E-01
deltaQ =   3.167478E-06
 Dsol_rc =      -0.01651598     -0.00949622     -0.91569133
 Dele =       0.00000000      0.00000000      0.87231002
alpha =   6.000000E-01
DIPOLC =       0.00000000      0.00000000     -0.04309367
ZVAL =  -4.309367E-01
deltaQ =   3.167478E-06
 Dsol_rc =      -0.01651598     -0.00949622     -0.91569133
 Dele =       0.00000000      0.00000000      0.87231002
alpha =   6.000000E-01
DIPOLC =       0.00000000      0.00000000     -0.04309367
ZVAL =  -4.309367E-01
deltaQ =   3.167478E-06
 Dsol_rc =      -0.01651598     -0.00949622     -0.91569133
 Dele =       0.00000000      0.00000000      0.87231002
alpha =   6.000000E-01
DIPOLC =       0.00000000      0.00000000     -0.04309367
ZVAL =  -4.309367E-01
deltaQ =   3.167478E-06
 Dsol_rc =      -0.01651598     -0.00949622     -0.91569133
 Dele =       0.00000000      0.00000000      0.87231002
alpha =   6.000000E-01
DIPOLC =       0.00000000      0.00000000     -0.04309367
ZVAL =  -4.309367E-01
deltaQ =   3.167478E-06
 Dsol_rc =      -0.01651598     -0.00949622     -0.91569133
 Dele =       0.00000000      0.00000000      0.87231002
alpha =   6.000000E-01
DIPOLC =       0.00000000      0.00000000     -0.04309367
ZVAL =  -4.309367E-01
deltaQ =   3.167478E-06
 Dsol_rc =      -0.01651598     -0.00949622     -0.91569133
 Dele =       0.00000000      0.00000000      0.87231002
alpha =   6.000000E-01
DIPOLC =       0.00000000      0.00000000     -0.04309367
ZVAL =  -4.309367E-01
deltaQ =   3.167478E-06
 Dsol_rc =      -0.01651598     -0.00949622     -0.91569133
 Dele =       0.00000000      0.00000000      0.87231002
alpha =   6.000000E-01
DIPOLC =       0.00000000      0.00000000     -0.04309367
ZVAL =  -4.309367E-01
deltaQ =   3.167478E-06
 Dsol_rc =      -0.01651598     -0.00949622     -0.91569133
 Dele =       0.00000000      0.00000000      0.87231002
alpha =   6.000000E-01
DIPOLC =       0.00000000      0.00000000     -0.04309367
ZVAL =  -4.309367E-01
deltaQ =   3.167478E-06
 Dsol_rc =      -0.01651598     -0.00949622     -0.91569133
 Dele =       0.00000000      0.00000000      0.87231002
alpha =   6.000000E-01
DIPOLC =       0.00000000      0.00000000     -0.04309367
ZVAL =  -4.309367E-01
deltaQ =   3.167478E-06
 Dsol_rc =      -0.01651598     -0.00949622     -0.91569133
 Dele =       0.00000000      0.00000000      0.87231002
alpha =   6.000000E-01
DIPOLC =       0.00000000      0.00000000     -0.04309367
ZVAL =  -4.309367E-01
deltaQ =   3.167478E-06
 Dsol_rc =      -0.01651598     -0.00949622     -0.91569133
 Dele =       0.00000000      0.00000000      0.87231002
alpha =   6.000000E-01
DIPOLC =       0.00000000      0.00000000     -0.04309367
ZVAL =  -4.309367E-01
 Dsol_rc =      -0.01651598     -0.00949622     -0.91569133
 Dele =       0.00000000      0.00000000      0.87231002
alpha =   6.000000E-01
DIPOLC =       0.00000000      0.00000000     -0.04309367
ZVAL =  -4.309367E-01
 Begin Solvation calculations
  rms_SCF =   1.103682094826673E-004 tol =   1.103682094826673E-005
 Begin minimization
 Creating dielectric and ionic cavities
  area:      239.957930625109     
  volume:    3288.63694510866     
  A_cav:    0.210923021019471     
  qion_max:     4.88570483206453     
  Solving nonlinear dielectric/ionic screening model
  Starting outer loop
        iter                  A_solv                     rms
 resid(G=0) =   6.156852670746726E-008
  NLPB:    0   0.223606539028732E+00   0.197823863669443E-03
   LPB:        0.223606539028732E+00   0.197823854088487E-03
   LPB:    0   0.223606539028733E+00   0.197886338162299E-03   0.742827E-09   0.000000E+00   0.828841E+02   0.615685E-07
   LPB:    1   0.223606722050849E+00   0.377474936416986E-02   0.699735E+00   0.000000E+00   0.159524E+02   0.435784E-25
   LPB:    2   0.223606777386149E+00   0.127006204263725E-02   0.770912E-02   0.274427E+02   0.583773E+02   0.135307E-16
   LPB:    3   0.223606792940190E+00   0.101997818148330E-02   0.848732E-02   0.255314E+00   0.187576E+03   0.272164E-16
   LPB:    4   0.223606797524027E+00   0.298324952132027E-03   0.608752E-02   0.410881E+00   0.306453E+03   0.365386E-16
   LPB:    5   0.223606798283063E+00   0.882932931406592E-04   0.946041E-02   0.106552E+00   0.185640E+03   0.401945E-16
   LPB:    6   0.223606798718353E+00   0.619494898857031E-04   0.202609E-01   0.267773E+00   0.732608E+03   0.415131E-16
   LPB:    7   0.223606799054498E+00   0.346618446542929E-04   0.252577E-01   0.619461E+00   0.282194E+03   0.415621E-16
   LPB:    8   0.223606799149920E+00   0.307484471978104E-04   0.207717E-01   0.345177E+00   0.337165E+03   0.408321E-16
   LPB:    9   0.223606799193162E+00   0.215388669553886E-04   0.169627E-01   0.554927E+00   0.203978E+03   0.407268E-16
   LPB:   10   0.223606799217235E+00   0.121162657633112E-04   0.179018E-01   0.527482E+00   0.482311E+03   0.404837E-16
    LS:    0   0.223606799217191E+00   0.260188458583999E-06   0.520377004410571E-06
 resid(G=0) =  -2.595687553785808E-012
  NLPB:    1   0.223606799217191E+00   0.121162597378118E-04
   LPB:        0.223606799217191E+00   0.121162597378115E-04
   LPB:    0   0.223606799217191E+00   0.121162601673540E-04  -0.313171E-13   0.000000E+00   0.828841E+02  -0.259569E-11
   LPB:    1   0.223606799227802E+00   0.125874845039369E-04   0.148876E-01   0.000000E+00   0.636909E+03  -0.184349E-27
   LPB:    2   0.223606799238058E+00   0.103938923707916E-04   0.233581E-01   0.616037E+00   0.713388E+03   0.552943E-19
   LPB:    3   0.223606799245101E+00   0.865164900567966E-05   0.207043E-01   0.774720E+00   0.810504E+03  -0.119396E-19
   LPB:    4   0.223606799251250E+00   0.997481777979231E-05   0.254516E-01   0.710265E+00   0.379785E+03  -0.724554E-19
   LPB:    5   0.223606799253421E+00   0.175903432379243E-04   0.135138E-01   0.665093E+00   0.153419E+03  -0.417358E-19
   LPB:    6   0.223606799254956E+00   0.527891340416944E-05   0.767810E-02   0.124413E+01   0.163515E+03   0.514966E-19
   LPB:    7   0.223606799256787E+00   0.692663147167942E-05   0.272192E-01   0.336373E+00   0.546789E+03   0.103368E-18
   LPB:    8   0.223606799257840E+00   0.281972990711241E-05   0.143777E-01   0.108916E+01   0.205315E+03   0.981758E-19
   LPB:    9   0.223606799258191E+00   0.444714847701369E-05   0.141704E-01   0.338181E+00   0.430464E+03   0.685023E-19
   LPB:   10   0.223606799258402E+00   0.298561553371060E-05   0.127751E-01   0.668333E+00   0.133960E+03   0.583690E-19
   LPB:   11   0.223606799258629E+00   0.244871870314130E-05   0.239300E-01   0.571267E+00   0.605766E+03   0.753772E-19
   LPB:   12   0.223606799258890E+00   0.116888885013249E-05   0.225477E-01   0.122769E+01   0.195671E+03   0.876427E-19
    LS:    0   0.223606799258888E+00   0.416973677808130E-10   0.833986131979140E-10
 resid(G=0) =  -4.204692150011624E-013
  NLPB:    2   0.223606799258888E+00   0.116890348807762E-05
  Finished solving NLPB equations
 End minimization
 Ecorr=   1874.18165991280     
 A_corr=  0.434529820278360     
 Ecorr_band=  -1873.74713009252     
 End Solvation calculations
RMM:  55    -0.194769252958E+03    0.14323E-04   -0.17666E-07  4389   0.400E-04    0.723E-04
deltaQ =   3.167530E-06
 Dsol_rc =      -0.01655024     -0.00949626     -0.91552085
 Dele =       0.00000000      0.00000000      0.87224268
alpha =   6.000000E-01
DIPOLC =       0.00000000      0.00000000     -0.04320437
ZVAL =  -4.320437E-01
deltaQ =   3.167530E-06
 Dsol_rc =      -0.01655024     -0.00949626     -0.91552085
 Dele =       0.00000000      0.00000000      0.87224268
alpha =   6.000000E-01
DIPOLC =       0.00000000      0.00000000     -0.04320437
ZVAL =  -4.320437E-01
deltaQ =   3.167530E-06
deltaQ =   3.167530E-06
 Dsol_rc =      -0.01655024     -0.00949626     -0.91552085
 Dele =       0.00000000      0.00000000      0.87224268
alpha =   6.000000E-01
DIPOLC =       0.00000000      0.00000000     -0.04320437
ZVAL =  -4.320437E-01
deltaQ =   3.167530E-06
 Dsol_rc =      -0.01655024     -0.00949626     -0.91552085
 Dele =       0.00000000      0.00000000      0.87224268
alpha =   6.000000E-01
DIPOLC =       0.00000000      0.00000000     -0.04320437
ZVAL =  -4.320437E-01
deltaQ =   3.167530E-06
 Dsol_rc =      -0.01655024     -0.00949626     -0.91552085
 Dele =       0.00000000      0.00000000      0.87224268
alpha =   6.000000E-01
DIPOLC =       0.00000000      0.00000000     -0.04320437
ZVAL =  -4.320437E-01
deltaQ =   3.167530E-06
 Dsol_rc =      -0.01655024     -0.00949626     -0.91552085
 Dele =       0.00000000      0.00000000      0.87224268
alpha =   6.000000E-01
DIPOLC =       0.00000000      0.00000000     -0.04320437
ZVAL =  -4.320437E-01
deltaQ =   3.167530E-06
 Dsol_rc =      -0.01655024     -0.00949626     -0.91552085
 Dele =       0.00000000      0.00000000      0.87224268
alpha =   6.000000E-01
DIPOLC =       0.00000000      0.00000000     -0.04320437
ZVAL =  -4.320437E-01
deltaQ =   3.167530E-06
 Dsol_rc =      -0.01655024     -0.00949626     -0.91552085
 Dele =       0.00000000      0.00000000      0.87224268
alpha =   6.000000E-01
DIPOLC =       0.00000000      0.00000000     -0.04320437
ZVAL =  -4.320437E-01
deltaQ =   3.167530E-06
 Dsol_rc =      -0.01655024     -0.00949626     -0.91552085
 Dele =       0.00000000      0.00000000      0.87224268
alpha =   6.000000E-01
DIPOLC =       0.00000000      0.00000000     -0.04320437
ZVAL =  -4.320437E-01
deltaQ =   3.167530E-06
 Dsol_rc =      -0.01655024     -0.00949626     -0.91552085
 Dele =       0.00000000      0.00000000      0.87224268
alpha =   6.000000E-01
DIPOLC =       0.00000000      0.00000000     -0.04320437
ZVAL =  -4.320437E-01
deltaQ =   3.167530E-06
 Dsol_rc =      -0.01655024     -0.00949626     -0.91552085
 Dele =       0.00000000      0.00000000      0.87224268
alpha =   6.000000E-01
DIPOLC =       0.00000000      0.00000000     -0.04320437
ZVAL =  -4.320437E-01
deltaQ =   3.167530E-06
 Dsol_rc =      -0.01655024     -0.00949626     -0.91552085
 Dele =       0.00000000      0.00000000      0.87224268
alpha =   6.000000E-01
DIPOLC =       0.00000000      0.00000000     -0.04320437
ZVAL =  -4.320437E-01
deltaQ =   3.167530E-06
 Dsol_rc =      -0.01655024     -0.00949626     -0.91552085
 Dele =       0.00000000      0.00000000      0.87224268
alpha =   6.000000E-01
DIPOLC =       0.00000000      0.00000000     -0.04320437
ZVAL =  -4.320437E-01
deltaQ =   3.167530E-06
 Dsol_rc =      -0.01655024     -0.00949626     -0.91552085
 Dele =       0.00000000      0.00000000      0.87224268
alpha =   6.000000E-01
DIPOLC =       0.00000000      0.00000000     -0.04320437
ZVAL =  -4.320437E-01
deltaQ =   3.167530E-06
 Dsol_rc =      -0.01655024     -0.00949626     -0.91552085
 Dele =       0.00000000      0.00000000      0.87224268
alpha =   6.000000E-01
DIPOLC =       0.00000000      0.00000000     -0.04320437
ZVAL =  -4.320437E-01
 Dsol_rc =      -0.01655024     -0.00949626     -0.91552085
 Dele =       0.00000000      0.00000000      0.87224268
alpha =   6.000000E-01
DIPOLC =       0.00000000      0.00000000     -0.04320437
ZVAL =  -4.320437E-01
 Begin Solvation calculations
  rms_SCF =   1.103682094826673E-004 tol =   1.103682094826673E-005
 Begin minimization
 Creating dielectric and ionic cavities
  area:      239.957930391845     
  volume:    3288.63682264701     
  A_cav:    0.210923020814432     
  qion_max:     4.88570518815149     
  Solving nonlinear dielectric/ionic screening model
  Starting outer loop
        iter                  A_solv                     rms
 resid(G=0) =   3.531579749471714E-008
  NLPB:    0   0.223606550468366E+00   0.472011126138865E-04
   LPB:        0.223606550468366E+00   0.472010994022729E-04
   LPB:    0   0.223606550468366E+00   0.472306161677485E-04   0.426087E-09   0.000000E+00   0.828841E+02   0.353158E-07
   LPB:    1   0.223606563993442E+00   0.587695621180863E-03   0.782273E+00   0.000000E+00   0.178436E+02   0.113764E-23
   LPB:    2   0.223606567074660E+00   0.218951395166807E-03   0.947974E-02   0.187994E+02   0.587814E+02  -0.106077E-16
   LPB:    3   0.223606567546459E+00   0.143079607066375E-03   0.789958E-02   0.183750E+00   0.331767E+03  -0.140419E-16
   LPB:    4   0.223606567659672E+00   0.769188692578110E-04   0.105085E-01   0.180386E+00   0.802678E+02  -0.155413E-16
   LPB:    5   0.223606567678301E+00   0.233702840537164E-04   0.525005E-02   0.329359E+00   0.165462E+03  -0.134734E-16
   LPB:    6   0.223606567690794E+00   0.864821208244029E-05   0.157179E-01   0.224012E+00   0.332395E+03  -0.131133E-16
   LPB:    7   0.223606567696640E+00   0.728287778113062E-05   0.227380E-01   0.323439E+00   0.636547E+03  -0.133055E-16
   LPB:    8   0.223606567698882E+00   0.668682766490467E-05   0.162539E-01   0.536406E+00   0.506714E+03  -0.134504E-16
   LPB:    9   0.223606567700629E+00   0.187406618164299E-05   0.195965E-01   0.646645E+00   0.340610E+03  -0.134075E-16
    LS:    0   0.223606567700607E+00   0.172322416613913E-07   0.344645271007470E-07
 resid(G=0) =  -5.616340725822511E-014
  NLPB:    1   0.223606567700607E+00   0.187406470757539E-05
  Finished solving NLPB equations
 End minimization
 Ecorr=   1874.17441164739     
 A_corr=  0.434529588515039     
 Ecorr_band=  -1873.73988205888     
 End Solvation calculations
RMM:  56    -0.194769249466E+03    0.34917E-05   -0.33423E-08  3817   0.214E-04    0.356E-04
deltaQ =   3.167586E-06
 Dsol_rc =      -0.01655649     -0.00949628     -0.91549413
 Dele =       0.00000000      0.00000000      0.87220840
alpha =   6.000000E-01
DIPOLC =       0.00000000      0.00000000     -0.04325319
ZVAL =  -4.325319E-01
deltaQ =   3.167586E-06
deltaQ =   3.167586E-06
 Dsol_rc =      -0.01655649     -0.00949628     -0.91549413
 Dele =       0.00000000      0.00000000      0.87220840
alpha =   6.000000E-01
DIPOLC =       0.00000000      0.00000000     -0.04325319
ZVAL =  -4.325319E-01
deltaQ =   3.167586E-06
 Dsol_rc =      -0.01655649     -0.00949628     -0.91549413
 Dele =       0.00000000      0.00000000      0.87220840
alpha =   6.000000E-01
DIPOLC =       0.00000000      0.00000000     -0.04325319
ZVAL =  -4.325319E-01
deltaQ =   3.167586E-06
 Dsol_rc =      -0.01655649     -0.00949628     -0.91549413
 Dele =       0.00000000      0.00000000      0.87220840
alpha =   6.000000E-01
DIPOLC =       0.00000000      0.00000000     -0.04325319
ZVAL =  -4.325319E-01
deltaQ =   3.167586E-06
 Dsol_rc =      -0.01655649     -0.00949628     -0.91549413
 Dele =       0.00000000      0.00000000      0.87220840
alpha =   6.000000E-01
DIPOLC =       0.00000000      0.00000000     -0.04325319
ZVAL =  -4.325319E-01
deltaQ =   3.167586E-06
 Dsol_rc =      -0.01655649     -0.00949628     -0.91549413
 Dele =       0.00000000      0.00000000      0.87220840
alpha =   6.000000E-01
DIPOLC =       0.00000000      0.00000000     -0.04325319
ZVAL =  -4.325319E-01
deltaQ =   3.167586E-06
 Dsol_rc =      -0.01655649     -0.00949628     -0.91549413
 Dele =       0.00000000      0.00000000      0.87220840
alpha =   6.000000E-01
DIPOLC =       0.00000000      0.00000000     -0.04325319
ZVAL =  -4.325319E-01
deltaQ =   3.167586E-06
 Dsol_rc =      -0.01655649     -0.00949628     -0.91549413
 Dele =       0.00000000      0.00000000      0.87220840
alpha =   6.000000E-01
DIPOLC =       0.00000000      0.00000000     -0.04325319
ZVAL =  -4.325319E-01
deltaQ =   3.167586E-06
 Dsol_rc =      -0.01655649     -0.00949628     -0.91549413
 Dele =       0.00000000      0.00000000      0.87220840
alpha =   6.000000E-01
DIPOLC =       0.00000000      0.00000000     -0.04325319
ZVAL =  -4.325319E-01
deltaQ =   3.167586E-06
 Dsol_rc =      -0.01655649     -0.00949628     -0.91549413
 Dele =       0.00000000      0.00000000      0.87220840
alpha =   6.000000E-01
DIPOLC =       0.00000000      0.00000000     -0.04325319
ZVAL =  -4.325319E-01
deltaQ =   3.167586E-06
 Dsol_rc =      -0.01655649     -0.00949628     -0.91549413
 Dele =       0.00000000      0.00000000      0.87220840
alpha =   6.000000E-01
DIPOLC =       0.00000000      0.00000000     -0.04325319
ZVAL =  -4.325319E-01
deltaQ =   3.167586E-06
 Dsol_rc =      -0.01655649     -0.00949628     -0.91549413
 Dele =       0.00000000      0.00000000      0.87220840
alpha =   6.000000E-01
DIPOLC =       0.00000000      0.00000000     -0.04325319
ZVAL =  -4.325319E-01
deltaQ =   3.167586E-06
 Dsol_rc =      -0.01655649     -0.00949628     -0.91549413
 Dele =       0.00000000      0.00000000      0.87220840
alpha =   6.000000E-01
DIPOLC =       0.00000000      0.00000000     -0.04325319
ZVAL =  -4.325319E-01
deltaQ =   3.167586E-06
 Dsol_rc =      -0.01655649     -0.00949628     -0.91549413
 Dele =       0.00000000      0.00000000      0.87220840
alpha =   6.000000E-01
DIPOLC =       0.00000000      0.00000000     -0.04325319
ZVAL =  -4.325319E-01
deltaQ =   3.167586E-06
 Dsol_rc =      -0.01655649     -0.00949628     -0.91549413
 Dele =       0.00000000      0.00000000      0.87220840
alpha =   6.000000E-01
DIPOLC =       0.00000000      0.00000000     -0.04325319
ZVAL =  -4.325319E-01
 Dsol_rc =      -0.01655649     -0.00949628     -0.91549413
 Dele =       0.00000000      0.00000000      0.87220840
alpha =   6.000000E-01
DIPOLC =       0.00000000      0.00000000     -0.04325319
ZVAL =  -4.325319E-01
 Begin Solvation calculations
  rms_SCF =   1.103682094826673E-004 tol =   1.103682094826673E-005
 Begin minimization
 Creating dielectric and ionic cavities
  area:      239.957930780886     
  volume:    3288.63676244990     
  A_cav:    0.210923021156399     
  qion_max:     4.88570537115682     
  Solving nonlinear dielectric/ionic screening model
  Starting outer loop
        iter                  A_solv                     rms
 resid(G=0) =   1.817043999985390E-008
  NLPB:    0   0.223607903002810E+00   0.209730941216851E-04
   LPB:        0.223607903002810E+00   0.209730862505301E-04
   LPB:    0   0.223607903002810E+00   0.209682475739120E-04   0.219227E-09   0.000000E+00   0.828841E+02   0.181704E-07
   LPB:    1   0.223607904454559E+00   0.367148126174233E-03   0.425233E+00   0.000000E+00   0.349552E+02  -0.106898E-23
   LPB:    2   0.223607905763660E+00   0.167139049618139E-03   0.142395E-01   0.269287E+02   0.602862E+02   0.485202E-18
   LPB:    3   0.223607906201665E+00   0.109772808500712E-03   0.954432E-02   0.499177E+00   0.143237E+03   0.250621E-17
   LPB:    4   0.223607906306321E+00   0.257676623880764E-04   0.119677E-01   0.190555E+00   0.862590E+02   0.315399E-17
   LPB:    5   0.223607906339346E+00   0.484987445937889E-04   0.169749E-01   0.222478E+00   0.309176E+03   0.409339E-17
   LPB:    6   0.223607906350350E+00   0.261382987145994E-04   0.673100E-02   0.840260E+00   0.349694E+03   0.426367E-17
   LPB:    7   0.223607906355675E+00   0.735049572178131E-05   0.892481E-02   0.365000E+00   0.227694E+03   0.417200E-17
   LPB:    8   0.223607906358174E+00   0.299866502467820E-05   0.172590E-01   0.242635E+00   0.463741E+03   0.405599E-17
   LPB:    9   0.223607906359805E+00   0.252554658731376E-05   0.291586E-01   0.386347E+00   0.180728E+04   0.403339E-17
   LPB:   10   0.223607906360406E+00   0.209496924539936E-05   0.196571E-01   0.546692E+00   0.656223E+03   0.400143E-17
    LS:    0   0.223607906360403E+00   0.335759223202281E-08   0.671519124831509E-08
 resid(G=0) =  -2.479960681256443E-014
  NLPB:    1   0.223607906360403E+00   0.209496450293172E-05
  Finished solving NLPB equations
 End minimization
 Ecorr=   1874.17897592675     
 A_corr=  0.434530927516802     
 Ecorr_band=  -1873.74444499923     
 End Solvation calculations
RMM:  57    -0.194769247958E+03    0.15085E-05   -0.43664E-09  1683   0.970E-05    0.307E-04
deltaQ =   3.167583E-06
 Dsol_rc =      -0.01655499     -0.00949630     -0.91547272
 Dele =       0.00000000      0.00000000      0.87211776
alpha =   6.000000E-01
DIPOLC =       0.00000000      0.00000000     -0.04331425
ZVAL =  -4.331425E-01
deltaQ =   3.167583E-06
 Dsol_rc =      -0.01655499     -0.00949630     -0.91547272
 Dele =       0.00000000      0.00000000      0.87211776
alpha =   6.000000E-01
DIPOLC =       0.00000000      0.00000000     -0.04331425
ZVAL =  -4.331425E-01
deltaQ =   3.167583E-06
 Dsol_rc =      -0.01655499     -0.00949630     -0.91547272
 Dele =       0.00000000      0.00000000      0.87211776
alpha =   6.000000E-01
DIPOLC =       0.00000000      0.00000000     -0.04331425
ZVAL =  -4.331425E-01
deltaQ =   3.167583E-06
deltaQ =   3.167583E-06
 Dsol_rc =      -0.01655499     -0.00949630     -0.91547272
 Dele =       0.00000000      0.00000000      0.87211776
alpha =   6.000000E-01
DIPOLC =       0.00000000      0.00000000     -0.04331425
ZVAL =  -4.331425E-01
deltaQ =   3.167583E-06
 Dsol_rc =      -0.01655499     -0.00949630     -0.91547272
 Dele =       0.00000000      0.00000000      0.87211776
alpha =   6.000000E-01
DIPOLC =       0.00000000      0.00000000     -0.04331425
ZVAL =  -4.331425E-01
deltaQ =   3.167583E-06
 Dsol_rc =      -0.01655499     -0.00949630     -0.91547272
 Dele =       0.00000000      0.00000000      0.87211776
alpha =   6.000000E-01
DIPOLC =       0.00000000      0.00000000     -0.04331425
ZVAL =  -4.331425E-01
deltaQ =   3.167583E-06
 Dsol_rc =      -0.01655499     -0.00949630     -0.91547272
 Dele =       0.00000000      0.00000000      0.87211776
alpha =   6.000000E-01
DIPOLC =       0.00000000      0.00000000     -0.04331425
ZVAL =  -4.331425E-01
deltaQ =   3.167583E-06
 Dsol_rc =      -0.01655499     -0.00949630     -0.91547272
 Dele =       0.00000000      0.00000000      0.87211776
alpha =   6.000000E-01
DIPOLC =       0.00000000      0.00000000     -0.04331425
ZVAL =  -4.331425E-01
deltaQ =   3.167583E-06
 Dsol_rc =      -0.01655499     -0.00949630     -0.91547272
 Dele =       0.00000000      0.00000000      0.87211776
alpha =   6.000000E-01
DIPOLC =       0.00000000      0.00000000     -0.04331425
ZVAL =  -4.331425E-01
deltaQ =   3.167583E-06
 Dsol_rc =      -0.01655499     -0.00949630     -0.91547272
 Dele =       0.00000000      0.00000000      0.87211776
alpha =   6.000000E-01
DIPOLC =       0.00000000      0.00000000     -0.04331425
ZVAL =  -4.331425E-01
deltaQ =   3.167583E-06
 Dsol_rc =      -0.01655499     -0.00949630     -0.91547272
 Dele =       0.00000000      0.00000000      0.87211776
alpha =   6.000000E-01
DIPOLC =       0.00000000      0.00000000     -0.04331425
ZVAL =  -4.331425E-01
deltaQ =   3.167583E-06
 Dsol_rc =      -0.01655499     -0.00949630     -0.91547272
 Dele =       0.00000000      0.00000000      0.87211776
alpha =   6.000000E-01
DIPOLC =       0.00000000      0.00000000     -0.04331425
ZVAL =  -4.331425E-01
deltaQ =   3.167583E-06
 Dsol_rc =      -0.01655499     -0.00949630     -0.91547272
 Dele =       0.00000000      0.00000000      0.87211776
alpha =   6.000000E-01
DIPOLC =       0.00000000      0.00000000     -0.04331425
ZVAL =  -4.331425E-01
deltaQ =   3.167583E-06
 Dsol_rc =      -0.01655499     -0.00949630     -0.91547272
 Dele =       0.00000000      0.00000000      0.87211776
alpha =   6.000000E-01
DIPOLC =       0.00000000      0.00000000     -0.04331425
ZVAL =  -4.331425E-01
deltaQ =   3.167583E-06
 Dsol_rc =      -0.01655499     -0.00949630     -0.91547272
 Dele =       0.00000000      0.00000000      0.87211776
alpha =   6.000000E-01
DIPOLC =       0.00000000      0.00000000     -0.04331425
ZVAL =  -4.331425E-01
 Dsol_rc =      -0.01655499     -0.00949630     -0.91547272
 Dele =       0.00000000      0.00000000      0.87211776
alpha =   6.000000E-01
DIPOLC =       0.00000000      0.00000000     -0.04331425
ZVAL =  -4.331425E-01
 Begin Solvation calculations
  rms_SCF =   1.103682094826673E-004 tol =   1.103682094826673E-005
 Begin minimization
 Creating dielectric and ionic cavities
  area:      239.957931933733     
  volume:    3288.63667889947     
  A_cav:    0.210923022169751     
  qion_max:     4.88570561302387     
  Solving nonlinear dielectric/ionic screening model
  Starting outer loop
        iter                  A_solv                     rms
 resid(G=0) =   2.405517025849679E-008
  NLPB:    0   0.223606430466612E+00   0.299607001190291E-04
   LPB:        0.223606430466612E+00   0.299606904621902E-04
   LPB:    0   0.223606430466612E+00   0.299873906292333E-04   0.290227E-09   0.000000E+00   0.828841E+02   0.240552E-07
   LPB:    1   0.223606434611619E+00   0.282780229226005E-03   0.753778E+00   0.000000E+00   0.133061E+02  -0.930301E-24
   LPB:    2   0.223606435768851E+00   0.122513021248548E-03   0.957473E-02   0.219792E+02   0.347125E+02   0.993331E-17
   LPB:    3   0.223606435864437E+00   0.646861727789339E-04   0.740056E-02   0.106865E+00   0.219394E+03   0.105205E-16
   LPB:    4   0.223606435894764E+00   0.443293862840694E-04   0.833338E-02   0.281762E+00   0.295019E+03   0.106733E-16
   LPB:    5   0.223606435914761E+00   0.334416931658871E-04   0.100669E-01   0.545833E+00   0.327266E+03   0.105736E-16
   LPB:    6   0.223606435927364E+00   0.151535326871162E-04   0.118473E-01   0.535519E+00   0.273436E+03   0.106262E-16
   LPB:    7   0.223606435933578E+00   0.848945339723326E-05   0.191654E-01   0.304793E+00   0.187826E+03   0.108266E-16
   LPB:    8   0.223606435936701E+00   0.528397459740522E-05   0.188827E-01   0.510101E+00   0.387315E+03   0.107106E-16
   LPB:    9   0.223606435938944E+00   0.435202795943028E-05   0.309498E-01   0.438143E+00   0.267413E+03   0.106994E-16
   LPB:   10   0.223606435940181E+00   0.475153025492727E-05   0.188263E-01   0.907174E+00   0.282740E+03   0.107004E-16
   LPB:   11   0.223606435941074E+00   0.320586362047388E-05   0.203944E-01   0.665886E+00   0.709369E+03   0.107238E-16
   LPB:   12   0.223606435941408E+00   0.156815009717472E-05   0.147169E-01   0.518408E+00   0.285716E+03   0.106595E-16
    LS:    0   0.223606435941397E+00   0.547478543055924E-08   0.109495919832018E-07
 resid(G=0) =   2.844946500601964E-015
  NLPB:    1   0.223606435941397E+00   0.156815879157584E-05
  Finished solving NLPB equations
 End minimization
 Ecorr=   1874.16754599037     
 A_corr=  0.434529458111149     
 Ecorr_band=  -1873.73301653226     
 End Solvation calculations
RMM:  58    -0.194769246078E+03    0.18793E-05   -0.71762E-09  2126   0.116E-04    0.422E-05
deltaQ =   3.167552E-06
 Dsol_rc =      -0.01654739     -0.00949629     -0.91546950
 Dele =       0.00000000      0.00000000      0.87207672
alpha =   6.000000E-01
DIPOLC =       0.00000000      0.00000000     -0.04336137
ZVAL =  -4.336137E-01
deltaQ =   3.167552E-06
 Dsol_rc =      -0.01654739     -0.00949629     -0.91546950
 Dele =       0.00000000      0.00000000      0.87207672
alpha =   6.000000E-01
DIPOLC =       0.00000000      0.00000000     -0.04336137
ZVAL =  -4.336137E-01
deltaQ =   3.167552E-06
deltaQ =   3.167552E-06
 Dsol_rc =      -0.01654739     -0.00949629     -0.91546950
 Dele =       0.00000000      0.00000000      0.87207672
alpha =   6.000000E-01
DIPOLC =       0.00000000      0.00000000     -0.04336137
ZVAL =  -4.336137E-01
deltaQ =   3.167552E-06
 Dsol_rc =      -0.01654739     -0.00949629     -0.91546950
 Dele =       0.00000000      0.00000000      0.87207672
alpha =   6.000000E-01
DIPOLC =       0.00000000      0.00000000     -0.04336137
ZVAL =  -4.336137E-01
deltaQ =   3.167552E-06
 Dsol_rc =      -0.01654739     -0.00949629     -0.91546950
 Dele =       0.00000000      0.00000000      0.87207672
alpha =   6.000000E-01
DIPOLC =       0.00000000      0.00000000     -0.04336137
ZVAL =  -4.336137E-01
deltaQ =   3.167552E-06
 Dsol_rc =      -0.01654739     -0.00949629     -0.91546950
 Dele =       0.00000000      0.00000000      0.87207672
alpha =   6.000000E-01
DIPOLC =       0.00000000      0.00000000     -0.04336137
ZVAL =  -4.336137E-01
deltaQ =   3.167552E-06
 Dsol_rc =      -0.01654739     -0.00949629     -0.91546950
 Dele =       0.00000000      0.00000000      0.87207672
alpha =   6.000000E-01
DIPOLC =       0.00000000      0.00000000     -0.04336137
ZVAL =  -4.336137E-01
deltaQ =   3.167552E-06
 Dsol_rc =      -0.01654739     -0.00949629     -0.91546950
 Dele =       0.00000000      0.00000000      0.87207672
alpha =   6.000000E-01
DIPOLC =       0.00000000      0.00000000     -0.04336137
ZVAL =  -4.336137E-01
deltaQ =   3.167552E-06
 Dsol_rc =      -0.01654739     -0.00949629     -0.91546950
 Dele =       0.00000000      0.00000000      0.87207672
alpha =   6.000000E-01
DIPOLC =       0.00000000      0.00000000     -0.04336137
ZVAL =  -4.336137E-01
deltaQ =   3.167552E-06
 Dsol_rc =      -0.01654739     -0.00949629     -0.91546950
 Dele =       0.00000000      0.00000000      0.87207672
alpha =   6.000000E-01
DIPOLC =       0.00000000      0.00000000     -0.04336137
ZVAL =  -4.336137E-01
deltaQ =   3.167552E-06
 Dsol_rc =      -0.01654739     -0.00949629     -0.91546950
 Dele =       0.00000000      0.00000000      0.87207672
alpha =   6.000000E-01
DIPOLC =       0.00000000      0.00000000     -0.04336137
ZVAL =  -4.336137E-01
deltaQ =   3.167552E-06
 Dsol_rc =      -0.01654739     -0.00949629     -0.91546950
 Dele =       0.00000000      0.00000000      0.87207672
alpha =   6.000000E-01
DIPOLC =       0.00000000      0.00000000     -0.04336137
ZVAL =  -4.336137E-01
deltaQ =   3.167552E-06
 Dsol_rc =      -0.01654739     -0.00949629     -0.91546950
 Dele =       0.00000000      0.00000000      0.87207672
alpha =   6.000000E-01
DIPOLC =       0.00000000      0.00000000     -0.04336137
ZVAL =  -4.336137E-01
deltaQ =   3.167552E-06
 Dsol_rc =      -0.01654739     -0.00949629     -0.91546950
 Dele =       0.00000000      0.00000000      0.87207672
alpha =   6.000000E-01
DIPOLC =       0.00000000      0.00000000     -0.04336137
ZVAL =  -4.336137E-01
deltaQ =   3.167552E-06
 Dsol_rc =      -0.01654739     -0.00949629     -0.91546950
 Dele =       0.00000000      0.00000000      0.87207672
alpha =   6.000000E-01
DIPOLC =       0.00000000      0.00000000     -0.04336137
ZVAL =  -4.336137E-01
 Dsol_rc =      -0.01654739     -0.00949629     -0.91546950
 Dele =       0.00000000      0.00000000      0.87207672
alpha =   6.000000E-01
DIPOLC =       0.00000000      0.00000000     -0.04336137
ZVAL =  -4.336137E-01
 Begin Solvation calculations
  rms_SCF =   7.676357909670455E-005 tol =   7.676357909670455E-006
 Begin minimization
 Creating dielectric and ionic cavities
  area:      239.957932077803     
  volume:    3288.63667284827     
  A_cav:    0.210923022296389     
  qion_max:     4.88570563490117     
  Solving nonlinear dielectric/ionic screening model
  Starting outer loop
        iter                  A_solv                     rms
 resid(G=0) =   2.144691535477250E-009
  NLPB:    0   0.223607977131541E+00   0.213102323407281E-04
   LPB:        0.223607977131541E+00   0.213102322328057E-04
   LPB:    0   0.223607977131541E+00   0.213111893493995E-04   0.258758E-10   0.000000E+00   0.828841E+02   0.214469E-08
   LPB:    1   0.223607978630955E+00   0.483847249536957E-03   0.480186E+00   0.000000E+00   0.280163E+02   0.108937E-24
   LPB:    2   0.223607979746118E+00   0.102682446765309E-03   0.101693E-01   0.351184E+02   0.521305E+02  -0.705387E-18
   LPB:    3   0.223607980121083E+00   0.850436715854098E-04   0.131640E-01   0.259752E+00   0.181148E+03  -0.235904E-18
   LPB:    4   0.223607980191995E+00   0.424483906837725E-04   0.112053E-01   0.222173E+00   0.104003E+03  -0.232782E-18
   LPB:    5   0.223607980200781E+00   0.255842491133410E-04   0.598333E-02   0.232025E+00   0.288338E+03   0.801987E-18
   LPB:    6   0.223607980209458E+00   0.116658736669205E-04   0.139667E-01   0.423077E+00   0.364470E+03   0.906843E-18
   LPB:    7   0.223607980214395E+00   0.770317169572544E-05   0.158585E-01   0.501180E+00   0.383841E+03   0.907427E-18
   LPB:    8   0.223607980216843E+00   0.439823433156046E-05   0.182293E-01   0.431354E+00   0.408848E+03   0.877559E-18
   LPB:    9   0.223607980217852E+00   0.172940495943687E-05   0.189918E-01   0.395593E+00   0.396892E+03   0.109902E-17
    LS:    0   0.223607980217902E+00   0.308636058377054E-08   0.617262242234725E-08
 resid(G=0) =  -5.133393710110568E-014
  NLPB:    1   0.223607980217902E+00   0.172940690687719E-05
  Finished solving NLPB equations
 End minimization
 Ecorr=   1874.17114623395     
 A_corr=  0.434531002514290     
 Ecorr_band=  -1873.73661523143     
 End Solvation calculations
RMM:  59    -0.194769244582E+03    0.14958E-05   -0.49273E-09  1813   0.111E-04    0.644E-05
deltaQ =   3.167574E-06
 Dsol_rc =      -0.01655919     -0.00949631     -0.91543953
 Dele =       0.00000000      0.00000000      0.87205099
alpha =   6.000000E-01
DIPOLC =       0.00000000      0.00000000     -0.04337767
ZVAL =  -4.337767E-01
deltaQ =   3.167574E-06
deltaQ =   3.167574E-06
 Dsol_rc =      -0.01655919     -0.00949631     -0.91543953
 Dele =       0.00000000      0.00000000      0.87205099
alpha =   6.000000E-01
DIPOLC =       0.00000000      0.00000000     -0.04337767
ZVAL =  -4.337767E-01
deltaQ =   3.167574E-06
 Dsol_rc =      -0.01655919     -0.00949631     -0.91543953
 Dele =       0.00000000      0.00000000      0.87205099
alpha =   6.000000E-01
DIPOLC =       0.00000000      0.00000000     -0.04337767
ZVAL =  -4.337767E-01
deltaQ =   3.167574E-06
 Dsol_rc =      -0.01655919     -0.00949631     -0.91543953
 Dele =       0.00000000      0.00000000      0.87205099
alpha =   6.000000E-01
DIPOLC =       0.00000000      0.00000000     -0.04337767
ZVAL =  -4.337767E-01
deltaQ =   3.167574E-06
 Dsol_rc =      -0.01655919     -0.00949631     -0.91543953
 Dele =       0.00000000      0.00000000      0.87205099
alpha =   6.000000E-01
DIPOLC =       0.00000000      0.00000000     -0.04337767
ZVAL =  -4.337767E-01
deltaQ =   3.167574E-06
 Dsol_rc =      -0.01655919     -0.00949631     -0.91543953
 Dele =       0.00000000      0.00000000      0.87205099
alpha =   6.000000E-01
DIPOLC =       0.00000000      0.00000000     -0.04337767
ZVAL =  -4.337767E-01
deltaQ =   3.167574E-06
 Dsol_rc =      -0.01655919     -0.00949631     -0.91543953
 Dele =       0.00000000      0.00000000      0.87205099
alpha =   6.000000E-01
DIPOLC =       0.00000000      0.00000000     -0.04337767
ZVAL =  -4.337767E-01
deltaQ =   3.167574E-06
 Dsol_rc =      -0.01655919     -0.00949631     -0.91543953
 Dele =       0.00000000      0.00000000      0.87205099
alpha =   6.000000E-01
DIPOLC =       0.00000000      0.00000000     -0.04337767
ZVAL =  -4.337767E-01
deltaQ =   3.167574E-06
 Dsol_rc =      -0.01655919     -0.00949631     -0.91543953
 Dele =       0.00000000      0.00000000      0.87205099
alpha =   6.000000E-01
DIPOLC =       0.00000000      0.00000000     -0.04337767
ZVAL =  -4.337767E-01
deltaQ =   3.167574E-06
 Dsol_rc =      -0.01655919     -0.00949631     -0.91543953
 Dele =       0.00000000      0.00000000      0.87205099
alpha =   6.000000E-01
DIPOLC =       0.00000000      0.00000000     -0.04337767
ZVAL =  -4.337767E-01
deltaQ =   3.167574E-06
 Dsol_rc =      -0.01655919     -0.00949631     -0.91543953
 Dele =       0.00000000      0.00000000      0.87205099
alpha =   6.000000E-01
DIPOLC =       0.00000000      0.00000000     -0.04337767
ZVAL =  -4.337767E-01
deltaQ =   3.167574E-06
 Dsol_rc =      -0.01655919     -0.00949631     -0.91543953
 Dele =       0.00000000      0.00000000      0.87205099
alpha =   6.000000E-01
DIPOLC =       0.00000000      0.00000000     -0.04337767
ZVAL =  -4.337767E-01
deltaQ =   3.167574E-06
 Dsol_rc =      -0.01655919     -0.00949631     -0.91543953
 Dele =       0.00000000      0.00000000      0.87205099
alpha =   6.000000E-01
DIPOLC =       0.00000000      0.00000000     -0.04337767
ZVAL =  -4.337767E-01
deltaQ =   3.167574E-06
 Dsol_rc =      -0.01655919     -0.00949631     -0.91543953
 Dele =       0.00000000      0.00000000      0.87205099
alpha =   6.000000E-01
DIPOLC =       0.00000000      0.00000000     -0.04337767
ZVAL =  -4.337767E-01
deltaQ =   3.167574E-06
 Dsol_rc =      -0.01655919     -0.00949631     -0.91543953
 Dele =       0.00000000      0.00000000      0.87205099
alpha =   6.000000E-01
DIPOLC =       0.00000000      0.00000000     -0.04337767
ZVAL =  -4.337767E-01
 Dsol_rc =      -0.01655919     -0.00949631     -0.91543953
 Dele =       0.00000000      0.00000000      0.87205099
alpha =   6.000000E-01
DIPOLC =       0.00000000      0.00000000     -0.04337767
ZVAL =  -4.337767E-01
 Begin Solvation calculations
  rms_SCF =   7.676357909670455E-005 tol =   7.676357909670455E-006
 Begin minimization
 Creating dielectric and ionic cavities
  area:      239.957931796352     
  volume:    3288.63667094866     
  A_cav:    0.210923022048993     
  qion_max:     4.88570564570384     
  Solving nonlinear dielectric/ionic screening model
  Starting outer loop
        iter                  A_solv                     rms
 resid(G=0) =   1.004593172537760E-009
  NLPB:    0   0.223608459990381E+00   0.759417571345388E-05
   LPB:        0.223608459990381E+00   0.759417564700773E-05
   LPB:    0   0.223608459990381E+00   0.759433968891980E-05   0.121205E-10   0.000000E+00   0.828841E+02   0.100459E-08
   LPB:    1   0.223608460070514E+00   0.605467004989029E-04   0.196677E+00   0.000000E+00   0.718312E+02  -0.673279E-26
   LPB:    2   0.223608460271667E+00   0.565124170050979E-04   0.305594E-01   0.161557E+02   0.309995E+02  -0.371010E-19
   LPB:    3   0.223608460327490E+00   0.623123378553109E-04   0.118483E-01   0.715768E+00   0.933361E+02  -0.123770E-17
   LPB:    4   0.223608460354128E+00   0.340951842981844E-04   0.103910E-01   0.544132E+00   0.110732E+03  -0.998358E-18
   LPB:    5   0.223608460363035E+00   0.320854108818144E-04   0.832529E-02   0.417292E+00   0.273705E+03  -0.567972E-18
   LPB:    6   0.223608460369664E+00   0.129863887198103E-04   0.101552E-01   0.610241E+00   0.170023E+03  -0.511271E-18
   LPB:    7   0.223608460372936E+00   0.561878498337901E-05   0.122093E-01   0.410432E+00   0.209269E+03  -0.761870E-18
   LPB:    8   0.223608460374762E+00   0.418831496229796E-05   0.229639E-01   0.296783E+00   0.316819E+03  -0.847297E-18
   LPB:    9   0.223608460375896E+00   0.200213275632521E-05   0.203121E-01   0.701841E+00   0.894702E+03  -0.779290E-18
   LPB:   10   0.223608460376446E+00   0.162734854485867E-05   0.217191E-01   0.454443E+00   0.119159E+04  -0.748584E-18
   LPB:   11   0.223608460376689E+00   0.210628300813768E-05   0.242621E-01   0.393856E+00   0.338776E+03  -0.735857E-18
   LPB:   12   0.223608460376845E+00   0.968880183212965E-06   0.151468E-01   0.102901E+01   0.411194E+03  -0.731120E-18
   LPB:   13   0.223608460376932E+00   0.316926486491056E-06   0.257029E-01   0.332849E+00   0.432235E+03  -0.728897E-18
    LS:    0   0.223608460376931E+00   0.386549958708571E-09   0.773102707737050E-09
 resid(G=0) =   2.775557561562891E-015
  NLPB:    1   0.223608460376931E+00   0.316926187766633E-06
  Finished solving NLPB equations
 End minimization
 Ecorr=   1874.17180699616     
 A_corr=  0.434531482425924     
 Ecorr_band=  -1873.73727551374     
 End Solvation calculations
WARNING in EDDRMM: call to ZHEGV failed, returncode =   8  4     26
RMM:  60    -0.194769244089E+03    0.49299E-06   -0.12766E-09  1195   0.998E-05    0.958E-05
deltaQ =   3.167636E-06
 Dsol_rc =      -0.01655123     -0.00949632     -0.91543160
 Dele =       0.00000000      0.00000000      0.87202849
alpha =   6.000000E-01
DIPOLC =       0.00000000      0.00000000     -0.04339294
ZVAL =  -4.339294E-01
deltaQ =   3.167636E-06
deltaQ =   3.167636E-06
 Dsol_rc =      -0.01655123     -0.00949632     -0.91543160
 Dele =       0.00000000      0.00000000      0.87202849
alpha =   6.000000E-01
DIPOLC =       0.00000000      0.00000000     -0.04339294
ZVAL =  -4.339294E-01
deltaQ =   3.167636E-06
 Dsol_rc =      -0.01655123     -0.00949632     -0.91543160
 Dele =       0.00000000      0.00000000      0.87202849
alpha =   6.000000E-01
DIPOLC =       0.00000000      0.00000000     -0.04339294
ZVAL =  -4.339294E-01
deltaQ =   3.167636E-06
 Dsol_rc =      -0.01655123     -0.00949632     -0.91543160
 Dele =       0.00000000      0.00000000      0.87202849
alpha =   6.000000E-01
DIPOLC =       0.00000000      0.00000000     -0.04339294
ZVAL =  -4.339294E-01
deltaQ =   3.167636E-06
 Dsol_rc =      -0.01655123     -0.00949632     -0.91543160
 Dele =       0.00000000      0.00000000      0.87202849
alpha =   6.000000E-01
DIPOLC =       0.00000000      0.00000000     -0.04339294
ZVAL =  -4.339294E-01
deltaQ =   3.167636E-06
 Dsol_rc =      -0.01655123     -0.00949632     -0.91543160
 Dele =       0.00000000      0.00000000      0.87202849
alpha =   6.000000E-01
DIPOLC =       0.00000000      0.00000000     -0.04339294
ZVAL =  -4.339294E-01
deltaQ =   3.167636E-06
 Dsol_rc =      -0.01655123     -0.00949632     -0.91543160
 Dele =       0.00000000      0.00000000      0.87202849
alpha =   6.000000E-01
DIPOLC =       0.00000000      0.00000000     -0.04339294
ZVAL =  -4.339294E-01
deltaQ =   3.167636E-06
 Dsol_rc =      -0.01655123     -0.00949632     -0.91543160
 Dele =       0.00000000      0.00000000      0.87202849
alpha =   6.000000E-01
DIPOLC =       0.00000000      0.00000000     -0.04339294
ZVAL =  -4.339294E-01
deltaQ =   3.167636E-06
 Dsol_rc =      -0.01655123     -0.00949632     -0.91543160
 Dele =       0.00000000      0.00000000      0.87202849
alpha =   6.000000E-01
DIPOLC =       0.00000000      0.00000000     -0.04339294
ZVAL =  -4.339294E-01
deltaQ =   3.167636E-06
 Dsol_rc =      -0.01655123     -0.00949632     -0.91543160
 Dele =       0.00000000      0.00000000      0.87202849
alpha =   6.000000E-01
DIPOLC =       0.00000000      0.00000000     -0.04339294
ZVAL =  -4.339294E-01
deltaQ =   3.167636E-06
 Dsol_rc =      -0.01655123     -0.00949632     -0.91543160
 Dele =       0.00000000      0.00000000      0.87202849
alpha =   6.000000E-01
DIPOLC =       0.00000000      0.00000000     -0.04339294
ZVAL =  -4.339294E-01
deltaQ =   3.167636E-06
 Dsol_rc =      -0.01655123     -0.00949632     -0.91543160
 Dele =       0.00000000      0.00000000      0.87202849
alpha =   6.000000E-01
DIPOLC =       0.00000000      0.00000000     -0.04339294
ZVAL =  -4.339294E-01
deltaQ =   3.167636E-06
 Dsol_rc =      -0.01655123     -0.00949632     -0.91543160
 Dele =       0.00000000      0.00000000      0.87202849
alpha =   6.000000E-01
DIPOLC =       0.00000000      0.00000000     -0.04339294
ZVAL =  -4.339294E-01
deltaQ =   3.167636E-06
 Dsol_rc =      -0.01655123     -0.00949632     -0.91543160
 Dele =       0.00000000      0.00000000      0.87202849
alpha =   6.000000E-01
DIPOLC =       0.00000000      0.00000000     -0.04339294
ZVAL =  -4.339294E-01
deltaQ =   3.167636E-06
 Dsol_rc =      -0.01655123     -0.00949632     -0.91543160
 Dele =       0.00000000      0.00000000      0.87202849
alpha =   6.000000E-01
DIPOLC =       0.00000000      0.00000000     -0.04339294
ZVAL =  -4.339294E-01
 Dsol_rc =      -0.01655123     -0.00949632     -0.91543160
 Dele =       0.00000000      0.00000000      0.87202849
alpha =   6.000000E-01
DIPOLC =       0.00000000      0.00000000     -0.04339294
ZVAL =  -4.339294E-01
 Begin Solvation calculations
  rms_SCF =   7.676357909670455E-005 tol =   7.676357909670455E-006
 Begin minimization
 Creating dielectric and ionic cavities
  area:      239.957931634578     
  volume:    3288.63667449396     
  A_cav:    0.210923021906794     
  qion_max:     4.88570563993240     
  Solving nonlinear dielectric/ionic screening model
  Starting outer loop
        iter                  A_solv                     rms
 resid(G=0) =  -5.211744646960170E-010
  NLPB:    0   0.223609274469021E+00   0.759681891803332E-05
   LPB:        0.223609274469021E+00   0.759681890015591E-05
   LPB:    0   0.223609274469021E+00   0.759689692585205E-05  -0.628799E-11   0.000000E+00   0.828841E+02  -0.521174E-09
   LPB:    1   0.223609274596330E+00   0.154476828141404E-03   0.375819E+00   0.000000E+00   0.305864E+02   0.612991E-26
   LPB:    2   0.223609274736680E+00   0.404476409349623E-04   0.122309E-01   0.338747E+02   0.480676E+02  -0.154981E-18
   LPB:    3   0.223609274789006E+00   0.328236870793600E-04   0.127905E-01   0.356509E+00   0.126720E+03  -0.251426E-19
   LPB:    4   0.223609274797759E+00   0.273365848605129E-04   0.985221E-02   0.217174E+00   0.867123E+02  -0.930790E-19
   LPB:    5   0.223609274800224E+00   0.639380399580958E-05   0.556719E-02   0.498284E+00   0.146466E+03   0.385819E-18
   LPB:    6   0.223609274801466E+00   0.205561997534963E-05   0.175018E-01   0.160294E+00   0.449283E+03   0.540856E-18
   LPB:    7   0.223609274801839E+00   0.149873517294634E-05   0.172549E-01   0.304533E+00   0.915063E+03   0.581406E-18
   LPB:    8   0.223609274801986E+00   0.135991314614985E-05   0.176356E-01   0.386435E+00   0.833420E+03   0.612634E-18
   LPB:    9   0.223609274802089E+00   0.897602839580610E-06   0.197432E-01   0.626204E+00   0.642164E+03   0.621216E-18
   LPB:   10   0.223609274802167E+00   0.595200864747883E-06   0.253783E-01   0.587642E+00   0.366574E+03   0.615433E-18
    LS:    0   0.223609274802165E+00   0.333144400954666E-09   0.666292709289211E-09
 resid(G=0) =   4.857225732735060E-015
  NLPB:    1   0.223609274802165E+00   0.595200413000641E-06
  Finished solving NLPB equations
 End minimization
 Ecorr=   1874.17449111205     
 A_corr=  0.434532296708960     
 Ecorr_band=  -1873.73995881534     
 End Solvation calculations
WARNING in EDDRMM: call to ZHEGV failed, returncode =   8  4     26
RMM:  61    -0.194769243618E+03    0.47098E-06   -0.68539E-10  1005   0.973E-05    0.108E-04
deltaQ =   3.167577E-06
 Dsol_rc =      -0.01655120     -0.00949633     -0.91542026
 Dele =       0.00000000      0.00000000      0.87202258
alpha =   6.000000E-01
DIPOLC =       0.00000000      0.00000000     -0.04339578
ZVAL =  -4.339578E-01
deltaQ =   3.167577E-06
deltaQ =   3.167577E-06
 Dsol_rc =      -0.01655120     -0.00949633     -0.91542026
 Dele =       0.00000000      0.00000000      0.87202258
alpha =   6.000000E-01
DIPOLC =       0.00000000      0.00000000     -0.04339578
ZVAL =  -4.339578E-01
deltaQ =   3.167577E-06
 Dsol_rc =      -0.01655120     -0.00949633     -0.91542026
 Dele =       0.00000000      0.00000000      0.87202258
alpha =   6.000000E-01
DIPOLC =       0.00000000      0.00000000     -0.04339578
ZVAL =  -4.339578E-01
deltaQ =   3.167577E-06
 Dsol_rc =      -0.01655120     -0.00949633     -0.91542026
 Dele =       0.00000000      0.00000000      0.87202258
alpha =   6.000000E-01
DIPOLC =       0.00000000      0.00000000     -0.04339578
ZVAL =  -4.339578E-01
deltaQ =   3.167577E-06
 Dsol_rc =      -0.01655120     -0.00949633     -0.91542026
 Dele =       0.00000000      0.00000000      0.87202258
alpha =   6.000000E-01
DIPOLC =       0.00000000      0.00000000     -0.04339578
ZVAL =  -4.339578E-01
deltaQ =   3.167577E-06
 Dsol_rc =      -0.01655120     -0.00949633     -0.91542026
 Dele =       0.00000000      0.00000000      0.87202258
alpha =   6.000000E-01
DIPOLC =       0.00000000      0.00000000     -0.04339578
ZVAL =  -4.339578E-01
deltaQ =   3.167577E-06
 Dsol_rc =      -0.01655120     -0.00949633     -0.91542026
 Dele =       0.00000000      0.00000000      0.87202258
alpha =   6.000000E-01
DIPOLC =       0.00000000      0.00000000     -0.04339578
ZVAL =  -4.339578E-01
deltaQ =   3.167577E-06
 Dsol_rc =      -0.01655120     -0.00949633     -0.91542026
 Dele =       0.00000000      0.00000000      0.87202258
alpha =   6.000000E-01
DIPOLC =       0.00000000      0.00000000     -0.04339578
ZVAL =  -4.339578E-01
deltaQ =   3.167577E-06
 Dsol_rc =      -0.01655120     -0.00949633     -0.91542026
 Dele =       0.00000000      0.00000000      0.87202258
alpha =   6.000000E-01
DIPOLC =       0.00000000      0.00000000     -0.04339578
ZVAL =  -4.339578E-01
deltaQ =   3.167577E-06
 Dsol_rc =      -0.01655120     -0.00949633     -0.91542026
 Dele =       0.00000000      0.00000000      0.87202258
alpha =   6.000000E-01
DIPOLC =       0.00000000      0.00000000     -0.04339578
ZVAL =  -4.339578E-01
deltaQ =   3.167577E-06
 Dsol_rc =      -0.01655120     -0.00949633     -0.91542026
 Dele =       0.00000000      0.00000000      0.87202258
alpha =   6.000000E-01
DIPOLC =       0.00000000      0.00000000     -0.04339578
ZVAL =  -4.339578E-01
deltaQ =   3.167577E-06
 Dsol_rc =      -0.01655120     -0.00949633     -0.91542026
 Dele =       0.00000000      0.00000000      0.87202258
alpha =   6.000000E-01
DIPOLC =       0.00000000      0.00000000     -0.04339578
ZVAL =  -4.339578E-01
deltaQ =   3.167577E-06
 Dsol_rc =      -0.01655120     -0.00949633     -0.91542026
 Dele =       0.00000000      0.00000000      0.87202258
alpha =   6.000000E-01
DIPOLC =       0.00000000      0.00000000     -0.04339578
ZVAL =  -4.339578E-01
deltaQ =   3.167577E-06
 Dsol_rc =      -0.01655120     -0.00949633     -0.91542026
 Dele =       0.00000000      0.00000000      0.87202258
alpha =   6.000000E-01
DIPOLC =       0.00000000      0.00000000     -0.04339578
ZVAL =  -4.339578E-01
deltaQ =   3.167577E-06
 Dsol_rc =      -0.01655120     -0.00949633     -0.91542026
 Dele =       0.00000000      0.00000000      0.87202258
alpha =   6.000000E-01
DIPOLC =       0.00000000      0.00000000     -0.04339578
ZVAL =  -4.339578E-01
 Dsol_rc =      -0.01655120     -0.00949633     -0.91542026
 Dele =       0.00000000      0.00000000      0.87202258
alpha =   6.000000E-01
DIPOLC =       0.00000000      0.00000000     -0.04339578
ZVAL =  -4.339578E-01
 Begin Solvation calculations
  rms_SCF =   7.676357909670455E-005 tol =   7.676357909670455E-006
 Begin minimization
 Creating dielectric and ionic cavities
  area:      239.957931379250     
  volume:    3288.63670365428     
  A_cav:    0.210923021682361     
  qion_max:     4.88570555832767     
  Solving nonlinear dielectric/ionic screening model
  Starting outer loop
        iter                  A_solv                     rms
 resid(G=0) =  -8.028051293185179E-009
  NLPB:    0   0.223610570973604E+00   0.741890340066455E-05
   LPB:        0.223610570973604E+00   0.741889905705587E-05
   LPB:    0   0.223610570973604E+00   0.742748024149825E-05  -0.968588E-10   0.000000E+00   0.828841E+02  -0.802805E-08
   LPB:    1   0.223610570974880E+00   0.176161460459497E-04   0.369644E-01   0.000000E+00   0.268297E+02  -0.154145E-24
   LPB:    2   0.223610570979013E+00   0.127597869092425E-04   0.263560E-01   0.454312E+01   0.869580E+01  -0.126684E-18
   LPB:    3   0.223610570991662E+00   0.181407198395789E-04   0.486622E-01   0.165747E+01   0.209873E+01  -0.288982E-18
   LPB:    4   0.223610570996022E+00   0.197581010262773E-04   0.104337E-01   0.160773E+01   0.515680E+01  -0.461084E-18
   LPB:    5   0.223610570997570E+00   0.625601326835917E-05   0.626244E-02   0.591609E+00   0.135379E+02  -0.413215E-18
   LPB:    6   0.223610570998812E+00   0.508783201509442E-05   0.191373E-01   0.262500E+00   0.204615E+02  -0.398806E-18
   LPB:    7   0.223610570999583E+00   0.146127959240065E-05   0.147680E-01   0.803794E+00   0.333616E+02  -0.438030E-18
   LPB:    8   0.223610570999755E+00   0.792432943173376E-06   0.177682E-01   0.185343E+00   0.745683E+02  -0.449788E-18
   LPB:    9   0.223610570999836E+00   0.893835717993533E-06   0.243243E-01   0.348001E+00   0.322390E+03  -0.418646E-18
   LPB:   10   0.223610570999881E+00   0.496111101783004E-06   0.198887E-01   0.661695E+00   0.102913E+03  -0.420196E-18
    LS:    0   0.223610570999880E+00   0.262767307912526E-10   0.525543230103731E-10
 resid(G=0) =  -2.009503674571533E-014
  NLPB:    1   0.223610570999880E+00   0.496110694365190E-06
  Finished solving NLPB equations
 End minimization
 Ecorr=   1874.18027638772     
 A_corr=  0.434533592682241     
 Ecorr_band=  -1873.74574279504     
 End Solvation calculations
RMM:  62    -0.194769243536E+03    0.82044E-07   -0.60383E-11   765   0.878E-05
deltaQ =   3.167495E-06
 Dsol_rc =      -0.01654970     -0.00949632     -0.91540266
 Dele =       0.00000000      0.00000000      0.87202597
alpha =   3.000000E-01
DIPOLC =       0.00000000      0.00000000     -0.04339005
ZVAL =  -4.339005E-01
deltaQ =   3.167495E-06
 Dsol_rc =      -0.01654970     -0.00949632     -0.91540266
 Dele =       0.00000000      0.00000000      0.87202597
alpha =   3.000000E-01
DIPOLC =       0.00000000      0.00000000     -0.04339005
ZVAL =  -4.339005E-01
deltaQ =   3.167495E-06
deltaQ =   3.167495E-06
 Dsol_rc =      -0.01654970     -0.00949632     -0.91540266
 Dele =       0.00000000      0.00000000      0.87202597
alpha =   3.000000E-01
DIPOLC =       0.00000000      0.00000000     -0.04339005
ZVAL =  -4.339005E-01
deltaQ =   3.167495E-06
 Dsol_rc =      -0.01654970     -0.00949632     -0.91540266
 Dele =       0.00000000      0.00000000      0.87202597
alpha =   3.000000E-01
DIPOLC =       0.00000000      0.00000000     -0.04339005
ZVAL =  -4.339005E-01
deltaQ =   3.167495E-06
 Dsol_rc =      -0.01654970     -0.00949632     -0.91540266
 Dele =       0.00000000      0.00000000      0.87202597
alpha =   3.000000E-01
DIPOLC =       0.00000000      0.00000000     -0.04339005
ZVAL =  -4.339005E-01
deltaQ =   3.167495E-06
 Dsol_rc =      -0.01654970     -0.00949632     -0.91540266
 Dele =       0.00000000      0.00000000      0.87202597
alpha =   3.000000E-01
DIPOLC =       0.00000000      0.00000000     -0.04339005
ZVAL =  -4.339005E-01
deltaQ =   3.167495E-06
 Dsol_rc =      -0.01654970     -0.00949632     -0.91540266
 Dele =       0.00000000      0.00000000      0.87202597
alpha =   3.000000E-01
DIPOLC =       0.00000000      0.00000000     -0.04339005
ZVAL =  -4.339005E-01
deltaQ =   3.167495E-06
 Dsol_rc =      -0.01654970     -0.00949632     -0.91540266
 Dele =       0.00000000      0.00000000      0.87202597
alpha =   3.000000E-01
DIPOLC =       0.00000000      0.00000000     -0.04339005
ZVAL =  -4.339005E-01
deltaQ =   3.167495E-06
 Dsol_rc =      -0.01654970     -0.00949632     -0.91540266
 Dele =       0.00000000      0.00000000      0.87202597
alpha =   3.000000E-01
DIPOLC =       0.00000000      0.00000000     -0.04339005
ZVAL =  -4.339005E-01
deltaQ =   3.167495E-06
 Dsol_rc =      -0.01654970     -0.00949632     -0.91540266
 Dele =       0.00000000      0.00000000      0.87202597
alpha =   3.000000E-01
DIPOLC =       0.00000000      0.00000000     -0.04339005
ZVAL =  -4.339005E-01
deltaQ =   3.167495E-06
 Dsol_rc =      -0.01654970     -0.00949632     -0.91540266
 Dele =       0.00000000      0.00000000      0.87202597
alpha =   3.000000E-01
DIPOLC =       0.00000000      0.00000000     -0.04339005
ZVAL =  -4.339005E-01
deltaQ =   3.167495E-06
 Dsol_rc =      -0.01654970     -0.00949632     -0.91540266
 Dele =       0.00000000      0.00000000      0.87202597
alpha =   3.000000E-01
DIPOLC =       0.00000000      0.00000000     -0.04339005
ZVAL =  -4.339005E-01
deltaQ =   3.167495E-06
 Dsol_rc =      -0.01654970     -0.00949632     -0.91540266
 Dele =       0.00000000      0.00000000      0.87202597
alpha =   3.000000E-01
DIPOLC =       0.00000000      0.00000000     -0.04339005
ZVAL =  -4.339005E-01
deltaQ =   3.167495E-06
 Dsol_rc =      -0.01654970     -0.00949632     -0.91540266
 Dele =       0.00000000      0.00000000      0.87202597
alpha =   3.000000E-01
DIPOLC =       0.00000000      0.00000000     -0.04339005
ZVAL =  -4.339005E-01
deltaQ =   3.167495E-06
 Dsol_rc =      -0.01654970     -0.00949632     -0.91540266
 Dele =       0.00000000      0.00000000      0.87202597
alpha =   3.000000E-01
DIPOLC =       0.00000000      0.00000000     -0.04339005
ZVAL =  -4.339005E-01
 Dsol_rc =      -0.01654970     -0.00949632     -0.91540266
 Dele =       0.00000000      0.00000000      0.87202597
alpha =   3.000000E-01
DIPOLC =       0.00000000      0.00000000     -0.04339005
ZVAL =  -4.339005E-01
 Begin Solvation calculations
  rms_SCF =   7.676357909670455E-005 tol =   7.676357909670455E-006
 Begin minimization
 Creating dielectric and ionic cavities
  area:      239.957931186678     
  volume:    3288.63672087384     
  A_cav:    0.210923021513090     
  qion_max:     4.88570550997028     
  Solving nonlinear dielectric/ionic screening model
  Starting outer loop
        iter                  A_solv                     rms
 resid(G=0) =  -4.892480781615305E-009
  NLPB:    0   0.223611197986578E+00   0.517466957270747E-05
   LPB:        0.223611197986578E+00   0.517466725986670E-05
   LPB:    0   0.223611197986578E+00   0.518206055906326E-05  -0.590280E-10   0.000000E+00   0.828841E+02  -0.489248E-08
   LPB:    1   0.223611198003038E+00   0.575456882387607E-04   0.277520E+00   0.000000E+00   0.106417E+02   0.488776E-24
   LPB:    2   0.223611198029322E+00   0.185936775260944E-04   0.147591E-01   0.300244E+02   0.614880E+01  -0.932771E-18
   LPB:    3   0.223611198041139E+00   0.135237283852136E-04   0.140115E-01   0.473577E+00   0.107641E+02  -0.211553E-17
   LPB:    4   0.223611198042641E+00   0.125163421354281E-04   0.767287E-02   0.232108E+00   0.779185E+02  -0.282907E-17
   LPB:    5   0.223611198043448E+00   0.334660419750787E-05   0.771453E-02   0.534496E+00   0.112328E+03  -0.289717E-17
   LPB:    6   0.223611198043871E+00   0.210204046882074E-05   0.168333E-01   0.240204E+00   0.107342E+03  -0.292840E-17
   LPB:    7   0.223611198044050E+00   0.144624332735918E-05   0.170762E-01   0.416274E+00   0.520767E+03  -0.289671E-17
   LPB:    8   0.223611198044159E+00   0.127418290936078E-05   0.197318E-01   0.526384E+00   0.228613E+03  -0.290852E-17
   LPB:    9   0.223611198044231E+00   0.711328489751074E-06   0.248593E-01   0.529806E+00   0.217999E+03  -0.293315E-17
   LPB:   10   0.223611198044271E+00   0.600558668787926E-06   0.213274E-01   0.642588E+00   0.440740E+03  -0.291587E-17
   LPB:   11   0.223611198044323E+00   0.770618578850879E-06   0.381242E-01   0.722244E+00   0.935760E+03  -0.292394E-17
   LPB:   12   0.223611198044339E+00   0.363371104582070E-06   0.122687E-01   0.963705E+00   0.544371E+03  -0.293547E-17
    LS:    0   0.223611198044339E+00   0.577609626795095E-10   0.115521962073974E-09
 resid(G=0) =  -1.289246487345963E-014
  NLPB:    1   0.223611198044339E+00   0.363371111876561E-06
  Finished solving NLPB equations
 End minimization
 Ecorr=   1874.18365706193     
 A_corr=  0.434534219557429     
 Ecorr_band=  -1873.74912284237     
 End Solvation calculations
   1 F= -.19476924E+03 E0= -.19474919E+03  d E =-.601547E-01
CPM-ion: NSTEP=    1 N_ele=   703.900000 mu_e=  -5.098393 TARGETMU=  -5.107100 GCE= -.19525990E+03 cap=   0.838714
deltaQ =   3.167582E-06
deltaQ =   3.167582E-06
 Dsol_rc =      -0.01654997     -0.00949632     -0.91539719
 Dele =       0.00000000      0.00000000      0.87202597
alpha =   6.000000E-01
DIPOLC =       0.00000000      0.00000000     -0.04337876
ZVAL =  -4.337876E-01
deltaQ =   3.167582E-06
 Dsol_rc =      -0.01654997     -0.00949632     -0.91539719
 Dele =       0.00000000      0.00000000      0.87202597
alpha =   6.000000E-01
DIPOLC =       0.00000000      0.00000000     -0.04337876
ZVAL =  -4.337876E-01
deltaQ =   3.167582E-06
 Dsol_rc =      -0.01654997     -0.00949632     -0.91539719
 Dele =       0.00000000      0.00000000      0.87202597
alpha =   6.000000E-01
DIPOLC =       0.00000000      0.00000000     -0.04337876
ZVAL =  -4.337876E-01
deltaQ =   3.167582E-06
 Dsol_rc =      -0.01654997     -0.00949632     -0.91539719
 Dele =       0.00000000      0.00000000      0.87202597
alpha =   6.000000E-01
DIPOLC =       0.00000000      0.00000000     -0.04337876
ZVAL =  -4.337876E-01
deltaQ =   3.167582E-06
 Dsol_rc =      -0.01654997     -0.00949632     -0.91539719
 Dele =       0.00000000      0.00000000      0.87202597
alpha =   6.000000E-01
DIPOLC =       0.00000000      0.00000000     -0.04337876
ZVAL =  -4.337876E-01
deltaQ =   3.167582E-06
 Dsol_rc =      -0.01654997     -0.00949632     -0.91539719
 Dele =       0.00000000      0.00000000      0.87202597
alpha =   6.000000E-01
DIPOLC =       0.00000000      0.00000000     -0.04337876
ZVAL =  -4.337876E-01
deltaQ =   3.167582E-06
 Dsol_rc =      -0.01654997     -0.00949632     -0.91539719
 Dele =       0.00000000      0.00000000      0.87202597
alpha =   6.000000E-01
DIPOLC =       0.00000000      0.00000000     -0.04337876
ZVAL =  -4.337876E-01
deltaQ =   3.167582E-06
 Dsol_rc =      -0.01654997     -0.00949632     -0.91539719
 Dele =       0.00000000      0.00000000      0.87202597
alpha =   6.000000E-01
DIPOLC =       0.00000000      0.00000000     -0.04337876
ZVAL =  -4.337876E-01
deltaQ =   3.167582E-06
 Dsol_rc =      -0.01654997     -0.00949632     -0.91539719
 Dele =       0.00000000      0.00000000      0.87202597
alpha =   6.000000E-01
DIPOLC =       0.00000000      0.00000000     -0.04337876
ZVAL =  -4.337876E-01
deltaQ =   3.167582E-06
 Dsol_rc =      -0.01654997     -0.00949632     -0.91539719
 Dele =       0.00000000      0.00000000      0.87202597
alpha =   6.000000E-01
DIPOLC =       0.00000000      0.00000000     -0.04337876
ZVAL =  -4.337876E-01
deltaQ =   3.167582E-06
 Dsol_rc =      -0.01654997     -0.00949632     -0.91539719
 Dele =       0.00000000      0.00000000      0.87202597
alpha =   6.000000E-01
DIPOLC =       0.00000000      0.00000000     -0.04337876
ZVAL =  -4.337876E-01
deltaQ =   3.167582E-06
 Dsol_rc =      -0.01654997     -0.00949632     -0.91539719
 Dele =       0.00000000      0.00000000      0.87202597
alpha =   6.000000E-01
DIPOLC =       0.00000000      0.00000000     -0.04337876
ZVAL =  -4.337876E-01
deltaQ =   3.167582E-06
 Dsol_rc =      -0.01654997     -0.00949632     -0.91539719
 Dele =       0.00000000      0.00000000      0.87202597
alpha =   6.000000E-01
DIPOLC =       0.00000000      0.00000000     -0.04337876
ZVAL =  -4.337876E-01
deltaQ =   3.167582E-06
 Dsol_rc =      -0.01654997     -0.00949632     -0.91539719
 Dele =       0.00000000      0.00000000      0.87202597
alpha =   6.000000E-01
DIPOLC =       0.00000000      0.00000000     -0.04337876
ZVAL =  -4.337876E-01
deltaQ =   3.167582E-06
 Dsol_rc =      -0.01654997     -0.00949632     -0.91539719
 Dele =       0.00000000      0.00000000      0.87202597
alpha =   6.000000E-01
DIPOLC =       0.00000000      0.00000000     -0.04337876
ZVAL =  -4.337876E-01
 Dsol_rc =      -0.01654997     -0.00949632     -0.91539719
 Dele =       0.00000000      0.00000000      0.87202597
alpha =   6.000000E-01
DIPOLC =       0.00000000      0.00000000     -0.04337876
ZVAL =  -4.337876E-01
 Begin Solvation calculations
  rms_SCF =   7.676357909670455E-005 tol =   7.676357909670455E-006
 Begin minimization
 Creating dielectric and ionic cavities
  area:      239.957931186678     
  volume:    3288.63672087384     
  A_cav:    0.210923021513090     
  qion_max:     4.88570550997027     
  Solving nonlinear dielectric/ionic screening model
  Starting outer loop
        iter                  A_solv                     rms
 resid(G=0) =  -1.346145417358002E-014
  NLPB:    0   0.223610837680301E+00   0.509140347640288E-05
   LPB:        0.223610837680301E+00   0.509140347640288E-05
   LPB:    0   0.223610837680301E+00   0.509140348350676E-05  -0.162413E-15   0.000000E+00   0.828841E+02  -0.134615E-13
   LPB:    1   0.223610837755009E+00   0.123420318440419E-03   0.426436E+00   0.000000E+00   0.304095E+02  -0.825185E-30
   LPB:    2   0.223610837821041E+00   0.305511444783452E-04   0.108438E-01   0.347585E+02   0.567205E+02   0.160995E-18
   LPB:    3   0.223610837848368E+00   0.174175957497761E-04   0.151647E-01   0.295919E+00   0.145920E+03   0.201900E-18
   LPB:    4   0.223610837851776E+00   0.425652867156840E-05   0.928420E-02   0.203759E+00   0.187412E+03  -0.265476E-19
   LPB:    5   0.223610837852446E+00   0.681605311709191E-05   0.140096E-01   0.130176E+00   0.589647E+03  -0.144073E-18
   LPB:    6   0.223610837852671E+00   0.363193575355106E-05   0.679924E-02   0.693543E+00   0.321322E+03  -0.159487E-18
   LPB:    7   0.223610837852897E+00   0.102805598715381E-05   0.141867E-01   0.480447E+00   0.274349E+03  -0.159024E-18
   LPB:    8   0.223610837852971E+00   0.795459589310683E-06   0.198480E-01   0.231297E+00   0.527121E+03  -0.166409E-18
   LPB:    9   0.223610837853012E+00   0.502067236683626E-06   0.203316E-01   0.557576E+00   0.519369E+03  -0.172098E-18
    LS:    0   0.223610837853013E+00   0.172711928092539E-09   0.345422700438149E-09
 resid(G=0) =  -2.083055949952950E-014
  NLPB:    1   0.223610837853013E+00   0.502067194717652E-06
  Finished solving NLPB equations
 End minimization
 Ecorr=   1874.18271176594     
 A_corr=  0.434533859366103     
 Ecorr_band=  -1873.74817790657     
 End Solvation calculations
deltaQ =   3.167582E-06
 Dsol_rc =      -0.01655113     -0.00949632     -0.91540715
 Dele =       0.00000000      0.00000000      0.87202597
alpha =   6.000000E-01
DIPOLC =       0.00000000      0.00000000     -0.04338021
ZVAL =  -4.338021E-01
deltaQ =   3.167582E-06
 Dsol_rc =      -0.01655113     -0.00949632     -0.91540715
 Dele =       0.00000000      0.00000000      0.87202597
alpha =   6.000000E-01
DIPOLC =       0.00000000      0.00000000     -0.04338021
ZVAL =  -4.338021E-01
deltaQ =   3.167582E-06
 Dsol_rc =      -0.01655113     -0.00949632     -0.91540715
 Dele =       0.00000000      0.00000000      0.87202597
alpha =   6.000000E-01
DIPOLC =       0.00000000      0.00000000     -0.04338021
ZVAL =  -4.338021E-01
deltaQ =   3.167582E-06
 Dsol_rc =      -0.01655113     -0.00949632     -0.91540715
 Dele =       0.00000000      0.00000000      0.87202597
alpha =   6.000000E-01
DIPOLC =       0.00000000      0.00000000     -0.04338021
ZVAL =  -4.338021E-01
deltaQ =   3.167582E-06
deltaQ =   3.167582E-06
 Dsol_rc =      -0.01655113     -0.00949632     -0.91540715
 Dele =       0.00000000      0.00000000      0.87202597
alpha =   6.000000E-01
DIPOLC =       0.00000000      0.00000000     -0.04338021
ZVAL =  -4.338021E-01
deltaQ =   3.167582E-06
 Dsol_rc =      -0.01655113     -0.00949632     -0.91540715
 Dele =       0.00000000      0.00000000      0.87202597
alpha =   6.000000E-01
DIPOLC =       0.00000000      0.00000000     -0.04338021
ZVAL =  -4.338021E-01
deltaQ =   3.167582E-06
 Dsol_rc =      -0.01655113     -0.00949632     -0.91540715
 Dele =       0.00000000      0.00000000      0.87202597
alpha =   6.000000E-01
DIPOLC =       0.00000000      0.00000000     -0.04338021
ZVAL =  -4.338021E-01
deltaQ =   3.167582E-06
 Dsol_rc =      -0.01655113     -0.00949632     -0.91540715
 Dele =       0.00000000      0.00000000      0.87202597
alpha =   6.000000E-01
DIPOLC =       0.00000000      0.00000000     -0.04338021
ZVAL =  -4.338021E-01
deltaQ =   3.167582E-06
 Dsol_rc =      -0.01655113     -0.00949632     -0.91540715
 Dele =       0.00000000      0.00000000      0.87202597
alpha =   6.000000E-01
DIPOLC =       0.00000000      0.00000000     -0.04338021
ZVAL =  -4.338021E-01
deltaQ =   3.167582E-06
 Dsol_rc =      -0.01655113     -0.00949632     -0.91540715
 Dele =       0.00000000      0.00000000      0.87202597
alpha =   6.000000E-01
DIPOLC =       0.00000000      0.00000000     -0.04338021
ZVAL =  -4.338021E-01
deltaQ =   3.167582E-06
 Dsol_rc =      -0.01655113     -0.00949632     -0.91540715
 Dele =       0.00000000      0.00000000      0.87202597
alpha =   6.000000E-01
DIPOLC =       0.00000000      0.00000000     -0.04338021
ZVAL =  -4.338021E-01
deltaQ =   3.167582E-06
 Dsol_rc =      -0.01655113     -0.00949632     -0.91540715
 Dele =       0.00000000      0.00000000      0.87202597
alpha =   6.000000E-01
DIPOLC =       0.00000000      0.00000000     -0.04338021
ZVAL =  -4.338021E-01
deltaQ =   3.167582E-06
 Dsol_rc =      -0.01655113     -0.00949632     -0.91540715
 Dele =       0.00000000      0.00000000      0.87202597
alpha =   6.000000E-01
DIPOLC =       0.00000000      0.00000000     -0.04338021
ZVAL =  -4.338021E-01
deltaQ =   3.167582E-06
 Dsol_rc =      -0.01655113     -0.00949632     -0.91540715
 Dele =       0.00000000      0.00000000      0.87202597
alpha =   6.000000E-01
DIPOLC =       0.00000000      0.00000000     -0.04338021
ZVAL =  -4.338021E-01
deltaQ =   3.167582E-06
 Dsol_rc =      -0.01655113     -0.00949632     -0.91540715
 Dele =       0.00000000      0.00000000      0.87202597
alpha =   6.000000E-01
DIPOLC =       0.00000000      0.00000000     -0.04338021
ZVAL =  -4.338021E-01
 Dsol_rc =      -0.01655113     -0.00949632     -0.91540715
 Dele =       0.00000000      0.00000000      0.87202597
alpha =   6.000000E-01
DIPOLC =       0.00000000      0.00000000     -0.04338021
ZVAL =  -4.338021E-01
