       N       E                     dE             d eps       ncg     rms          rms(c)
DAV:   1     0.233034393099E+02    0.23303E+02   -0.59662E+03 13104   0.593E+02
DAV:   2    -0.340880739114E+01   -0.26712E+02   -0.26172E+02 19440   0.972E+01
DAV:   3    -0.343580880682E+01   -0.27001E-01   -0.27001E-01 14832   0.430E+00
DAV:   4    -0.343582132163E+01   -0.12515E-04   -0.12515E-04 22816   0.779E-02
DAV:   5    -0.343582132131E+01    0.32139E-09   -0.38851E-09 15024   0.317E-04    0.102E+01
DAV:   6    -0.319188891850E+01    0.24393E+00   -0.81996E-01 19728   0.484E+00    0.639E+00
DAV:   7    -0.317060501188E+01    0.21284E-01   -0.92254E-02 24224   0.162E+00    0.281E+00
DAV:   8    -0.316821144157E+01    0.23936E-02   -0.20467E-03 14992   0.258E-01    0.233E-01
DAV:   9    -0.316820304018E+01    0.84014E-05   -0.99975E-06 20304   0.252E-02    0.288E-02
DAV:  10    -0.316820888093E+01   -0.58408E-05   -0.25623E-06 19168   0.121E-02    0.176E-03
DAV:  11    -0.316820895608E+01   -0.75147E-07   -0.44082E-08 21408   0.135E-03
   1 F= -.31682090E+01 E0= -.31684291E+01  d E =0.660287E-03
