Au                                      
   1.00000000000000     
    11.7605999846946609    0.0000000000000000    0.0000000000000000
     5.8802999923473305   10.1849783504924538    0.0000000000000000
     0.0000000000000000    0.0000000000000000   44.6030000000000015
   Au
    65
Selective dynamics
Direct
  0.0000000000000000  0.0000000000000000  0.1121000829540648   F   F   F
  0.4166666666666643  0.1666666666666643  0.2197440718915971   T   T   T
  0.6666666666666643  0.1666666666666643  0.2197440718915971   T   T   T
  0.9166666666666643  0.4166666666666643  0.2197440718915971   T   T   T
  0.1666666666666643  0.4166666666666643  0.2197440718915971   T   T   T
  0.4166666666666643  0.4166666666666643  0.2197440718915971   T   T   T
  0.6666666666666643  0.4166666666666643  0.2197440718915971   T   T   T
  0.9166666666666643  0.6666666666666643  0.2197440718915971   T   T   T
  0.1666666666666643  0.6666666666666643  0.2197440718915971   T   T   T
  0.4166666666666643  0.6666666666666643  0.2197440718915971   T   T   T
  0.6666666666666643  0.6666666666666643  0.2197440718915971   T   T   T
  0.9166666666666643  0.9166666666666643  0.2197440718915971   T   T   T
  0.1666666666666643  0.9166666666666643  0.2197440718915971   T   T   T
  0.4166666666666643  0.9166666666666643  0.2197440718915971   T   T   T
  0.6666666666666643  0.9166666666666643  0.2197440718915971   T   T   T
  0.0000000000000000  0.0000000000000000  0.2735660663603667   T   T   T
  0.2500000000000000  0.0000000000000000  0.2735660663603667   T   T   T
  0.5000000000000000  0.0000000000000000  0.2735660663603667   T   T   T
  0.7500000000000000  0.0000000000000000  0.2735660663603667   T   T   T
  0.0000000000000000  0.2500000000000000  0.2735660663603667   T   T   T
  0.2500000000000000  0.2500000000000000  0.2735660663603667   T   T   T
  0.5000000000000000  0.2500000000000000  0.2735660663603667   T   T   T
  0.7500000000000000  0.2500000000000000  0.2735660663603667   T   T   T
  0.0000000000000000  0.5000000000000000  0.2735660663603667   T   T   T
  0.2500000000000000  0.5000000000000000  0.2735660663603667   T   T   T
  0.5000000000000000  0.5000000000000000  0.2735660663603667   T   T   T
  0.7500000000000000  0.5000000000000000  0.2735660663603667   T   T   T
  0.0000000000000000  0.7500000000000000  0.2735660663603667   T   T   T
  0.2500000000000000  0.7500000000000000  0.2735660663603667   T   T   T
  0.5000000000000000  0.7500000000000000  0.2735660663603667   T   T   T
  0.1666666666666643  0.1666666666666643  0.2197440718915971   T   T   T
  0.7500000000000000  0.7500000000000000  0.2735660663603667   T   T   T
  0.9166666666666643  0.1666666666666643  0.2197440718915971   T   T   T
  0.5833333333333357  0.8333333333333357  0.1659220774228274   F   F   F
  0.2500000000000000  0.0000000000000000  0.1121000829540648   F   F   F
  0.5000000000000000  0.0000000000000000  0.1121000829540648   F   F   F
  0.7500000000000000  0.0000000000000000  0.1121000829540648   F   F   F
  0.0000000000000000  0.2500000000000000  0.1121000829540648   F   F   F
  0.2500000000000000  0.2500000000000000  0.1121000829540648   F   F   F
  0.5000000000000000  0.2500000000000000  0.1121000829540648   F   F   F
  0.7500000000000000  0.2500000000000000  0.1121000829540648   F   F   F
  0.0000000000000000  0.5000000000000000  0.1121000829540648   F   F   F
  0.2500000000000000  0.5000000000000000  0.1121000829540648   F   F   F
  0.5000000000000000  0.5000000000000000  0.1121000829540648   F   F   F
  0.7500000000000000  0.5000000000000000  0.1121000829540648   F   F   F
  0.0000000000000000  0.7500000000000000  0.1121000829540648   F   F   F
  0.2500000000000000  0.7500000000000000  0.1121000829540648   F   F   F
  0.5000000000000000  0.7500000000000000  0.1121000829540648   F   F   F
  0.7500000000000000  0.7500000000000000  0.1121000829540648   F   F   F
  0.0833333333333357  0.0833333333333357  0.1659220774228274   F   F   F
  0.3333333333333357  0.0833333333333357  0.1659220774228274   F   F   F
  0.5833333333333357  0.0833333333333357  0.1659220774228274   F   F   F
  0.8333333333333357  0.0833333333333357  0.1659220774228274   F   F   F
  0.0833333333333357  0.3333333333333357  0.1659220774228274   F   F   F
  0.3333333333333357  0.3333333333333357  0.1659220774228274   F   F   F
  0.5833333333333357  0.3333333333333357  0.1659220774228274   F   F   F
  0.8333333333333357  0.3333333333333357  0.1659220774228274   F   F   F
  0.0833333333333357  0.5833333333333357  0.1659220774228274   F   F   F
  0.3333333333333357  0.5833333333333357  0.1659220774228274   F   F   F
  0.5833333333333357  0.5833333333333357  0.1659220774228274   F   F   F
  0.8333333333333357  0.5833333333333357  0.1659220774228274   F   F   F
  0.0833333333333357  0.8333333333333357  0.1659220774228274   F   F   F
  0.3333333333333357  0.8333333333333357  0.1659220774228274   F   F   F
  0.8333333333333357  0.8333333333333357  0.1659220774228274   F   F   F
  0.0833333333333357  0.0833333333333357  0.3273995022756324   T   T   T
 
  0.00000000E+00  0.00000000E+00  0.00000000E+00
  0.00000000E+00  0.00000000E+00  0.00000000E+00
  0.00000000E+00  0.00000000E+00  0.00000000E+00
  0.00000000E+00  0.00000000E+00  0.00000000E+00
  0.00000000E+00  0.00000000E+00  0.00000000E+00
  0.00000000E+00  0.00000000E+00  0.00000000E+00
  0.00000000E+00  0.00000000E+00  0.00000000E+00
  0.00000000E+00  0.00000000E+00  0.00000000E+00
  0.00000000E+00  0.00000000E+00  0.00000000E+00
  0.00000000E+00  0.00000000E+00  0.00000000E+00
  0.00000000E+00  0.00000000E+00  0.00000000E+00
  0.00000000E+00  0.00000000E+00  0.00000000E+00
  0.00000000E+00  0.00000000E+00  0.00000000E+00
  0.00000000E+00  0.00000000E+00  0.00000000E+00
  0.00000000E+00  0.00000000E+00  0.00000000E+00
  0.00000000E+00  0.00000000E+00  0.00000000E+00
  0.00000000E+00  0.00000000E+00  0.00000000E+00
  0.00000000E+00  0.00000000E+00  0.00000000E+00
  0.00000000E+00  0.00000000E+00  0.00000000E+00
  0.00000000E+00  0.00000000E+00  0.00000000E+00
  0.00000000E+00  0.00000000E+00  0.00000000E+00
  0.00000000E+00  0.00000000E+00  0.00000000E+00
  0.00000000E+00  0.00000000E+00  0.00000000E+00
  0.00000000E+00  0.00000000E+00  0.00000000E+00
  0.00000000E+00  0.00000000E+00  0.00000000E+00
  0.00000000E+00  0.00000000E+00  0.00000000E+00
  0.00000000E+00  0.00000000E+00  0.00000000E+00
  0.00000000E+00  0.00000000E+00  0.00000000E+00
  0.00000000E+00  0.00000000E+00  0.00000000E+00
  0.00000000E+00  0.00000000E+00  0.00000000E+00
  0.00000000E+00  0.00000000E+00  0.00000000E+00
  0.00000000E+00  0.00000000E+00  0.00000000E+00
  0.00000000E+00  0.00000000E+00  0.00000000E+00
  0.00000000E+00  0.00000000E+00  0.00000000E+00
  0.00000000E+00  0.00000000E+00  0.00000000E+00
  0.00000000E+00  0.00000000E+00  0.00000000E+00
  0.00000000E+00  0.00000000E+00  0.00000000E+00
  0.00000000E+00  0.00000000E+00  0.00000000E+00
  0.00000000E+00  0.00000000E+00  0.00000000E+00
  0.00000000E+00  0.00000000E+00  0.00000000E+00
  0.00000000E+00  0.00000000E+00  0.00000000E+00
  0.00000000E+00  0.00000000E+00  0.00000000E+00
  0.00000000E+00  0.00000000E+00  0.00000000E+00
  0.00000000E+00  0.00000000E+00  0.00000000E+00
  0.00000000E+00  0.00000000E+00  0.00000000E+00
  0.00000000E+00  0.00000000E+00  0.00000000E+00
  0.00000000E+00  0.00000000E+00  0.00000000E+00
  0.00000000E+00  0.00000000E+00  0.00000000E+00
  0.00000000E+00  0.00000000E+00  0.00000000E+00
  0.00000000E+00  0.00000000E+00  0.00000000E+00
  0.00000000E+00  0.00000000E+00  0.00000000E+00
  0.00000000E+00  0.00000000E+00  0.00000000E+00
  0.00000000E+00  0.00000000E+00  0.00000000E+00
  0.00000000E+00  0.00000000E+00  0.00000000E+00
  0.00000000E+00  0.00000000E+00  0.00000000E+00
  0.00000000E+00  0.00000000E+00  0.00000000E+00
  0.00000000E+00  0.00000000E+00  0.00000000E+00
  0.00000000E+00  0.00000000E+00  0.00000000E+00
  0.00000000E+00  0.00000000E+00  0.00000000E+00
  0.00000000E+00  0.00000000E+00  0.00000000E+00
  0.00000000E+00  0.00000000E+00  0.00000000E+00
  0.00000000E+00  0.00000000E+00  0.00000000E+00
  0.00000000E+00  0.00000000E+00  0.00000000E+00
  0.00000000E+00  0.00000000E+00  0.00000000E+00
  0.00000000E+00  0.00000000E+00  0.00000000E+00
